15
Coordinates from ORCA-job opt E -34.507365866956
  C           2.47506700058568      0.63656716667824     -0.19279800196275
  C           1.25987360867006     -0.15477727660169      0.15630823534237
  C           0.07821755254814     -0.03264883793431     -0.42933346054797
  C          -1.14276788106779     -0.81703095815683     -0.07474560975717
  C          -2.28966478052331      0.06820808307971      0.38583030505903
  H           3.28895039995667     -0.01599968381012     -0.51053786574605
  H           2.27092576662066      1.34069623383496     -0.99759612746903
  H           2.83625967425423      1.19955696625560      0.66842926226011
  H           1.37056079002851     -0.88559714652035      0.95339491728624
  H          -0.03722243996338      0.70090060180681     -1.22453957329371
  H          -1.46478199858566     -1.39316650432803     -0.94605044321671
  H          -0.89490226383511     -1.54195727641994      0.70224040458418
  H          -3.17750913249800     -0.52166358556829      0.61067791196672
  H          -2.01474059623186      0.62384378305322      1.28186435907793
  H          -2.55826569995885      0.79306843463103     -0.38314431358321
