15
Coordinates from ORCA-job opt E -34.493096841072
  C       2.405620      0.652760     -0.132651
  C       1.224927     -0.227954      0.177170
  C       0.045583     -0.022693     -0.403793
  C      -1.152750     -0.865968     -0.130875
  C      -2.203686      0.098246      0.424440
  H       3.320520      0.025617     -0.257093
  H       2.189824      1.111115     -1.120534
  H       2.522465      1.433797      0.658989
  H       1.385414     -1.029050      0.890764
  H      -0.055499      0.787032     -1.103685
  H      -1.518765     -1.237140     -1.120870
  H      -0.942806     -1.696408      0.544977
  H      -3.012207     -0.460450      0.936228
  H      -1.650180      0.773250      1.111362
  H      -2.558462      0.657848     -0.474431
15
Coordinates from ORCA-job opt E -34.503243102366
  C       2.450206      0.646524     -0.147730
  C       1.252652     -0.219684      0.147373
  C       0.071639     -0.031629     -0.428542
  C      -1.153699     -0.838547     -0.126721
  C      -2.261920      0.085634      0.427657
  H       3.343270      0.032619     -0.258142
  H       2.285006      1.148153     -1.100470
  H       2.597420      1.384208      0.639549
  H       1.391322     -1.008460      0.879188
  H      -0.030651      0.766198     -1.156806
  H      -1.507583     -1.260883     -1.071585
  H      -0.927967     -1.651640      0.558763
  H      -3.061267     -0.485567      0.894267
  H      -1.806482      0.760112      1.149805
  H      -2.641948      0.672962     -0.406606
15
Coordinates from ORCA-job opt E -34.505801842833
  C       2.469256      0.638189     -0.163842
  C       1.259864     -0.198060      0.138122
  C       0.078073     -0.028759     -0.435384
  C      -1.153383     -0.818671     -0.120249
  C      -2.280124      0.073800      0.419960
  H       3.349847      0.013741     -0.286426
  H       2.324634      1.189734     -1.088745
  H       2.664532      1.343252      0.638674
  H       1.381316     -0.974069      0.888171
  H      -0.027761      0.750343     -1.187985
  H      -1.502181     -1.292325     -1.037628
  H      -0.915343     -1.611789      0.586615
  H      -3.092958     -0.515137      0.832301
  H      -1.890616      0.728394      1.194986
  H      -2.665155      0.701357     -0.378569
15
Coordinates from ORCA-job opt E -34.506881985019
  C       2.476619      0.632746     -0.179308
  C       1.262001     -0.176771      0.134068
  C       0.078917     -0.027176     -0.440038
  C      -1.150949     -0.807147     -0.107224
  C      -2.284923      0.066862      0.408715
  H       3.343673     -0.006264     -0.341279
  H       2.333052      1.241059     -1.069790
  H       2.727295      1.297092      0.647742
  H       1.371093     -0.936016      0.904389
  H      -0.032190      0.731180     -1.213724
  H      -1.493286     -1.334358     -1.000313
  H      -0.903927     -1.573511      0.628911
  H      -3.127150     -0.534042      0.746403
  H      -1.954219      0.681279      1.245209
  H      -2.646004      0.745067     -0.363761
15
Coordinates from ORCA-job opt E -34.507170602092
  C       2.476224      0.632595     -0.187598
  C       1.261017     -0.165784      0.137831
  C       0.077447     -0.027985     -0.439310
  C      -1.147834     -0.808123     -0.094395
  C      -2.284995      0.066208      0.400177
  H       3.329338     -0.013920     -0.396037
  H       2.317231      1.277313     -1.050409
  H       2.765340      1.263941      0.654515
  H       1.367839     -0.913503      0.920005
  H      -0.036805      0.718170     -1.223526
  H      -1.482703     -1.363593     -0.974578
  H      -0.898270     -1.555054      0.661732
  H      -3.151266     -0.533110      0.679369
  H      -1.985424      0.645496      1.273947
  H      -2.607138      0.777346     -0.361725
15
Coordinates from ORCA-job opt E -34.507318729553
  C       2.474651      0.634418     -0.193246
  C       1.259796     -0.158653      0.145237
  C       0.076415     -0.030324     -0.435860
  C      -1.144516     -0.813356     -0.081208
  C      -2.285809      0.067600      0.392209
  H       3.310172     -0.016069     -0.455820
  H       2.292933      1.311036     -1.026981
  H       2.800163      1.231876      0.660469
  H       1.367987     -0.896184      0.936707
  H      -0.039927      0.706953     -1.227299
  H      -1.471502     -1.387513     -0.952723
  H      -0.894806     -1.543525      0.690976
  H      -3.171791     -0.524955      0.620994
  H      -2.008564      0.617389      1.292041
  H      -2.565200      0.801308     -0.365497
15
Coordinates from ORCA-job opt E -34.507354196805
  C       2.474263      0.635906     -0.194343
  C       1.259582     -0.156710      0.150859
  C       0.076817     -0.031899     -0.432512
  C      -1.143100     -0.816686     -0.075626
  C      -2.287495      0.068664      0.388611
  H       3.298806     -0.015283     -0.486888
  H       2.278707      1.326655     -1.012966
  H       2.817888      1.215869      0.663459
  H       1.369665     -0.890037      0.945744
  H      -0.039677      0.702778     -1.226216
  H      -1.466565     -1.394468     -0.945604
  H      -0.894213     -1.541362      0.701414
  H      -3.179183     -0.520053      0.602669
  H      -2.015347      0.611844      1.293401
  H      -2.550149      0.804780     -0.372001
15
Coordinates from ORCA-job opt E -34.507363010415
  C       2.474581      0.636488     -0.193848
  C       1.259805     -0.156209      0.153743
  C       0.077550     -0.032498     -0.430627
  C      -1.142821     -0.817439     -0.074514
  C      -2.288776      0.068794      0.387330
  H       3.293895     -0.015016     -0.499236
  H       2.273496      1.332964     -1.006027
  H       2.826225      1.208727      0.665321
  H       1.370663     -0.888206      0.949673
  H      -0.038509      0.701741     -1.224957
  H      -1.465420     -1.394305     -0.945095
  H      -0.894435     -1.541727      0.702802
  H      -3.179939     -0.519465      0.603180
  H      -2.015690      0.615419      1.289410
  H      -2.550625      0.800733     -0.377154
15
Coordinates from ORCA-job opt E -34.507364752316
  C       2.474930      0.636647     -0.193254
  C       1.259969     -0.155608      0.155439
  C       0.078077     -0.032692     -0.429594
  C      -1.142792     -0.817317     -0.074487
  C      -2.289517      0.068550      0.386548
  H       3.290967     -0.015358     -0.506154
  H       2.271442      1.337165     -1.001284
  H       2.831998      1.203719      0.666909
  H       1.370967     -0.886888      0.952020
  H      -0.037589      0.701241     -1.224393
  H      -1.465110     -1.393363     -0.945631
  H      -0.894675     -1.542005      0.702538
  H      -3.179028     -0.520353      0.606887
  H      -2.015254      0.619954      1.285271
  H      -2.554386      0.796308     -0.380815
15
Coordinates from ORCA-job opt E -34.507365403137
  C       2.475087      0.636611     -0.192899
  C       1.259960     -0.155016      0.156216
  C       0.078261     -0.032680     -0.429255
  C      -1.142782     -0.817074     -0.074662
  C      -2.289736      0.068290      0.386034
  H       3.289367     -0.015829     -0.509698
  H       2.270891      1.339805     -0.998460
  H       2.835393      1.200555      0.668006
  H       1.370798     -0.885915      0.953199
  H      -0.037206      0.700973     -1.224381
  H      -1.464912     -1.393009     -0.946003
  H      -0.894823     -1.542004      0.702258
  H      -3.177985     -0.521330      0.609718
  H      -2.014940      0.622953      1.282649
  H      -2.557372      0.793669     -0.382721
15
Coordinates from ORCA-job opt E -34.507365866956
  C       2.475067      0.636567     -0.192798
  C       1.259874     -0.154777      0.156308
  C       0.078218     -0.032649     -0.429333
  C      -1.142768     -0.817031     -0.074746
  C      -2.289665      0.068208      0.385830
  H       3.288950     -0.016000     -0.510538
  H       2.270926      1.340696     -0.997596
  H       2.836260      1.199557      0.668429
  H       1.370561     -0.885597      0.953395
  H      -0.037222      0.700901     -1.224540
  H      -1.464782     -1.393167     -0.946050
  H      -0.894902     -1.541957      0.702240
  H      -3.177509     -0.521664      0.610678
  H      -2.014741      0.623844      1.281864
  H      -2.558266      0.793068     -0.383144
