17
Coordinates from ORCA-job opt E -20.278507308160
  C           2.37675641651556     -3.93691801774278      1.79774527783420
  C           1.47792389999966     -2.90060011395714      1.23598117502337
  C           1.92057038136818     -1.70368710666127      0.73903104863680
  C           1.13672227366277     -0.70061094109616      0.18448927051814
  C          -0.35429145556941     -0.73007582691014      0.13012489092470
  H           3.41429562369849     -3.61256025991698      1.77782124903131
  H           2.28828996956549     -4.86404055826100      1.22752223294237
  H           2.09826691022569     -4.17078806721137      2.82733205412672
  H           0.42350573835169     -3.13317575745231      1.23381779822355
  H           2.98871939016078     -1.52333053990984      0.76275880437680
  H           1.50729114670947     -1.27061408296350     -1.55477340417301
  H           1.61033720212564      0.23891900344463     -0.06225554122787
  H          -0.73049972562669      0.01078970805024     -0.57228268928744
  H          -0.72546812436797     -1.71205803507345     -0.15887111122157
  H          -0.77588739529642     -0.49808293106927      1.11209250947351
  O           1.60476136101369     -1.51399091221037     -2.61163020068991
  H           0.74956334746337     -1.30866285105926     -2.99124160451169
