17
Coordinates from ORCA-job opt E -20.282671723570
  C           2.37789902341338     -3.93870662570483      1.78533625117011
  C           1.47482321501550     -2.89583004564673      1.24261178305987
  C           1.91471667000125     -1.69068411562903      0.75836674109732
  C           1.12955863297695     -0.68130393195974      0.22672382196089
  C          -0.35908902809472     -0.71941880331091      0.14506834439932
  H           3.41520048331118     -3.61370538696062      1.76130331395665
  H           2.28567673628434     -4.85971677896971      1.20569221500504
  H           2.10782247926495     -4.18424115140820      2.81457231156680
  H           0.42061354929727     -3.12907104239966      1.24252868649753
  H           2.98277163146466     -1.50955411350578      0.78404476468435
  H           1.52430919747407     -1.29931888665132     -1.61308882033079
  H           1.60559316008282      0.25113727813427     -0.03996749177537
  H          -0.72676610706713      0.01875443712350     -0.56481680411592
  H          -0.71902976782029     -1.70426359490290     -0.14893751729559
  H          -0.80120009521380     -0.48898864636537      1.11840007971423
  O           1.61617474188008     -1.53838522723382     -2.62564607884310
  H           0.76178243772948     -1.34619065460911     -3.01452984075135
