17
Coordinates from ORCA-job opt E -20.285535632230
  C           2.37833592832792     -3.93834387705849      1.76769828667059
  C           1.47117705577649     -2.88876285921916      1.24483112423929
  C           1.90786028843979     -1.67535156689020      0.77543479158726
  C           1.12056836653910     -0.65988434642935      0.26475994280693
  C          -0.36584057235624     -0.70613933299225      0.16197127785959
  H           3.41518469770476     -3.61194807202687      1.74174869530998
  H           2.28366627882864     -4.85181003492834      1.17649004591159
  H           2.11516313896385     -4.19793484278694      2.79535339986112
  H           0.41720063745135     -3.12290653713176      1.24630346400778
  H           2.97570011230061     -1.49276185574334      0.80271356596840
  H           1.54934968752471     -1.33903539576595     -1.66430068757405
  H           1.59754116888121      0.26867088701527     -0.01262508084865
  H          -0.72766814113240      0.03396130558987     -0.54899574598619
  H          -0.71549921278963     -1.69170050025482     -0.14241704218671
  H          -0.82403254206620     -0.48407758164383      1.12977070919032
  O           1.63350416750627     -1.57427852571403     -2.63258715818138
  H           0.77864590009976     -1.39718415401979     -3.02848782863589
