17
Coordinates from ORCA-job opt E -20.262058100530
  C           2.36608155799964     -3.91829388277250      1.87631314238266
  C           1.50072168012999     -2.92513497208273      1.19241038735013
  C           1.95826094846512     -1.78036241523725      0.64260343938169
  C           1.17685849214796     -0.80234327899867     -0.04905638339669
  C          -0.32295355809254     -0.79095907747952      0.07246703403214
  H           3.40487792188021     -3.59835046020710      1.88557038536562
  H           2.29911081215650     -4.88164350664615      1.36864245640179
  H           2.03191427474724     -4.07394021856577      2.90310376375382
  H           0.44755707409852     -3.16406532148301      1.16029131763848
  H           3.02378469902052     -1.58966535313745      0.67824046203138
  H           1.38265729083327     -1.15261777435183     -1.34022761691206
  H           1.62685315675066      0.18508780618642     -0.09709732896717
  H          -0.75317826273568     -0.02101659482510     -0.56379241418082
  H          -0.75176321629670     -1.75065166182235     -0.20620273016600
  H          -0.61514546478215     -0.57804237259229      1.10286540935466
  O           1.51308975875060     -1.42138291809742     -2.57116104699156
  H           0.72212979492682     -1.06610528788728     -2.97730851707809
