17
Coordinates from ORCA-job opt E -20.275959283460
  C           2.52510343777144      0.33186155193697     -0.65321660884381
  C           1.33855763102097     -0.41380987018733     -0.16817869969424
  C           0.06010747007316      0.06963241910320     -0.21055986620249
  C          -1.06528456556580     -0.62135776318647      0.22814195452004
  C          -2.41234759513604      0.00585807031303      0.32397308503275
  H           3.03868039077599     -0.23394826198952     -1.43324495105771
  H           2.24495118155584      1.30433467418651     -1.05113729519996
  H           3.24326507870387      0.47641674076241      0.15627891653845
  H           1.51833054328594     -1.39706123972663      0.24381936234056
  H          -0.09638588124975      1.05397192280794     -0.63743701976531
  H          -1.32459865813103     -1.47739714279411     -1.26713937822560
  H          -0.92700079645443     -1.55854550896038      0.75163446509487
  H          -3.19255004059543     -0.69723365098082      0.03520476294052
  H          -2.61447067200030      0.30514390850847      1.35621956226690
  H          -2.48010516851037      0.88978626889913     -0.30627066410335
  O          -1.56639287553061     -2.06518320716955     -2.20548235670887
  H          -0.84243123001342     -1.86760478152282     -2.80000651893274
