17
Coordinates from ORCA-job opt E -20.267107763770
  C           2.53821301176431      0.35590223378739     -0.60239216893885
  C           1.34206559456401     -0.42002675174650     -0.19127869310612
  C           0.06823849580065      0.03425126160528     -0.28325065859038
  C          -1.07927853987816     -0.70830429148584      0.08574921878506
  C          -2.39267447291109     -0.01968833393435      0.29214569726447
  H           3.09109656440832     -0.18349768917537     -1.37336676778112
  H           2.26189435063387      1.33465402873938     -0.98690985844499
  H           3.21645529710065      0.48622522988652      0.24228175332956
  H           1.52484064004295     -1.40806150701556      0.20917222700457
  H          -0.09908035857873      1.01927904194767     -0.70352293872845
  H          -1.36516804548716     -1.42499664160464     -1.14557299384852
  H          -0.91370898256639     -1.59351066018040      0.69068254407602
  H          -3.21773399758765     -0.72224658424856      0.20198585143031
  H          -2.43283607444686      0.41475635323731      1.29454224153579
  H          -2.53192676404960      0.78242582123912     -0.42922233210603
  O          -1.62960806921525     -2.04512481998851     -2.16505309199627
  H          -0.93336039959386     -1.79717256106292     -2.77339127988505
