17
Coordinates from ORCA-job opt E -20.257337196730
  C           2.36181995995516     -3.91302793301828      1.89455656552472
  C           1.50323285415891     -2.92674131483970      1.19076519278179
  C           1.96489247321314     -1.80068684098506      0.62092434884297
  C           1.17937272787823     -0.81943910114912     -0.09395426512173
  C          -0.32073326154111     -0.80748466681032      0.07133560196794
  H           3.40324887353685     -3.60187321567506      1.89571025096958
  H           2.28522496482603     -4.88540571344887      1.40649139422473
  H           2.02738914151771     -4.04371953071523      2.92444696057498
  H           0.44850404110853     -3.16044370142749      1.16553621584632
  H           3.03073093283797     -1.61126657894090      0.64937207996904
  H           1.37238075174839     -1.12398801670056     -1.29331716771162
  H           1.61927557544542      0.17610889409379     -0.07869875039250
  H          -0.76534091042083     -0.02836559780834     -0.54329764006883
  H          -0.75788308552150     -1.76164395810985     -0.21200380737373
  H          -0.58289058615372     -0.60844346393024      1.11162702913707
  O           1.51426006913157     -1.39086591966788     -2.61474717272902
  H           0.72737243827922     -1.02220063086689     -3.01708507644168
