17
Coordinates from ORCA-job opt E -20.288175324530
  C           2.49809291976830      0.30198599933616     -0.69998817582969
  C           1.32263265831685     -0.40651879543712     -0.13762714457538
  C           0.04587989373723      0.10030611552092     -0.14410426430492
  C          -1.06037861361077     -0.54148853884445      0.37220652137497
  C          -2.42552972727674      0.04238956142813      0.38378929983150
  H           2.98019049263949     -0.30315214894408     -1.47102929570470
  H           2.21211755935940      1.25822894580234     -1.13206395111126
  H           3.24664322464019      0.47825418026997      0.07558611941512
  H           1.50334643348008     -1.37638034483779      0.30401292977467
  H          -0.10620908252070      1.07481342346012     -0.59502462898870
  H          -1.28326209624745     -1.57053242306314     -1.46136733485598
  H          -0.93583919478240     -1.50113836883629      0.85495548457347
  H          -3.14487162777418     -0.64290706177742     -0.06793638401747
  H          -2.75666532138168      0.21606206952489      1.41054174341825
  H          -2.45370861436216      0.98766098721914     -0.15351121184632
  O          -1.47058499604987     -2.08560730978660     -2.29779305667851
  H          -0.72442565793558     -1.92711216103476     -2.87804790047502
