17
Coordinates from ORCA-job opt E -20.259525355650
  C           2.36345189434776     -3.91498399065645      1.88664582555141
  C           1.50241767674419     -2.92625912437260      1.18990557683029
  C           1.96241952533661     -1.79209384884898      0.62909753972674
  C           1.17902640755572     -0.81290613854468     -0.07739389225873
  C          -0.32103903332412     -0.80044264022812      0.07022003831084
  H           3.40356970859934     -3.59942332498465      1.89271770716187
  H           2.29229012943987     -4.88364083143097      1.39015590823543
  H           2.02768353448469     -4.05637042261313      2.91479769173739
  H           0.44852483502297     -3.16283575806274      1.16048369676775
  H           3.02800157632901     -1.60156162822908      0.66159356845971
  H           1.37681781073359     -1.13646334942890     -1.31280247019010
  H           1.62325337462820      0.17968419503510     -0.08844970875137
  H          -0.75971496590892     -0.02485079816917     -0.55317566044346
  H          -0.75524768846812     -1.75669314673459     -0.21113201387551
  H          -0.59511042801132     -0.59564519448583      1.10670001438416
  O           1.51183128443566     -1.40380182975975     -2.58924825554438
  H           0.72268131805485     -1.04119945848547     -2.99245380610206
