17
Coordinates from ORCA-job opt E -20.255330307520
  C           2.36044117205084     -3.91137078582043      1.90197478072202
  C           1.50263152017068     -2.92723242539703      1.19365480855980
  C           1.96510196106810     -1.80960866210100      0.61259756754000
  C           1.17660700745063     -0.82564275444630     -0.10666301779413
  C          -0.32301597805438     -0.81376782227079      0.07716967365520
  H           3.40345269869813     -3.60576727773594      1.89389121526974
  H           2.27552628954383     -4.88778722677883      1.42365353018000
  H           2.03132419504323     -4.03002622659379      2.93492863274532
  H           0.44676176322469     -3.15699983957864      1.17696303473269
  H           3.03150326053481     -1.62269149908179      0.63228225270523
  H           1.36185456686325     -1.11504017286642     -1.28085858848149
  H           1.61361961410227      0.17132980842597     -0.06870887665972
  H          -0.77360728891169     -0.03122738957807     -0.52866302511003
  H          -0.76424203603536     -1.76571655867075     -0.20706636877673
  H          -0.57209286003456     -0.61975559742292      1.12124214301942
  O           1.53517992644121     -1.36340035951158     -2.64770737844651
  H           0.73981114784433     -1.01478250057168     -3.05102862386084
