17
Coordinates from ORCA-job opt E -20.271175042520
  C           2.53466103608966      0.34613339595605     -0.62503634794900
  C           1.34261377523215     -0.41699622015128     -0.18138444193458
  C           0.06580498077995      0.05095179233910     -0.24981013328093
  C          -1.07111244692135     -0.66848850777871      0.14802718563543
  C          -2.40218296926481     -0.01030018929405      0.30204686148034
  H           3.06910061477540     -0.20342968824828     -1.40223382431233
  H           2.25675061659252      1.32320330346790     -1.01289555497617
  H           3.23201456825416      0.48064114497508      0.20369989127165
  H           1.52361685486536     -1.40384812399579      0.22202485207611
  H          -0.09615733922000      1.03653700784384     -0.67135242133851
  H          -1.34893596067448     -1.44567483301102     -1.19577720331574
  H          -0.91913170738990     -1.58068715044074      0.71254495687333
  H          -3.20975168504706     -0.71618993237353      0.11866227029785
  H          -2.51866747672845      0.36324449284415      1.32324219596684
  H          -2.50515687074076      0.83109361441687     -0.37962215636202
  O          -1.60606070810005     -2.05284351453822     -2.17168373289536
  H          -0.89997703250232     -1.82848246201135     -2.77785364723690
