17
Coordinates from ORCA-job opt E -20.248962642300
  C       2.497214      0.346114     -0.586298
  C       1.293172     -0.449857     -0.228811
  C       0.033407     -0.047065     -0.418421
  C      -1.149753     -0.840407     -0.078009
  C      -2.370166     -0.027381      0.313916
  H       3.111631     -0.205650     -1.298313
  H       2.222905      1.302760     -1.023689
  H       3.109552      0.523067      0.298123
  H       1.483767     -1.416671      0.219331
  H      -0.152504      0.914871     -0.880090
  H      -1.474726     -1.407278     -0.946451
  H      -0.919899     -1.616023      0.657868
  H      -3.230128     -0.674538      0.464862
  H      -2.179350      0.512782      1.241740
  H      -2.613920      0.697053     -0.459569
  O      -1.495615     -1.933353     -2.243682
  H      -0.718158     -1.573559     -2.669909
17
Coordinates from ORCA-job opt E -20.254080965470
  C       2.506397      0.357478     -0.571759
  C       1.302221     -0.439421     -0.216891
  C       0.042468     -0.036638     -0.407016
  C      -1.140784     -0.830834     -0.069167
  C      -2.361622     -0.018703      0.323321
  H       3.121599     -0.192777     -1.284267
  H       2.232250      1.314894     -1.007590
  H       3.117876      0.532914      0.313560
  H       1.492630     -1.407124      0.229420
  H      -0.143206      0.926187     -0.866926
  H      -1.487495     -1.435266     -0.999217
  H      -0.911399     -1.607882      0.665366
  H      -3.221639     -0.666262      0.472224
  H      -2.171673      0.519655      1.252372
  H      -2.604757      0.707287     -0.448900
  O      -1.548393     -1.982961     -2.286199
  H      -0.777044     -1.635684     -2.735733
17
Coordinates from ORCA-job opt E -20.255374928370
  C       2.511213      0.361444     -0.566889
  C       1.307290     -0.435143     -0.212389
  C       0.046296     -0.028656     -0.396496
  C      -1.131794     -0.817644     -0.053990
  C      -2.359657     -0.016298      0.324679
  H       3.123078     -0.186873     -1.283681
  H       2.237360      1.321260     -0.997675
  H       3.126058      0.531650      0.317234
  H       1.497446     -1.404436      0.230712
  H      -0.139615      0.934134     -0.856426
  H      -1.479609     -1.437817     -1.021544
  H      -0.907050     -1.603339      0.668564
  H      -3.217787     -0.669070      0.461379
  H      -2.182506      0.518592      1.258246
  H      -2.597428      0.712306     -0.446881
  O      -1.575671     -2.005737     -2.297568
  H      -0.810195     -1.669509     -2.764675
17
Coordinates from ORCA-job opt E -20.256022955740
  C       2.517158      0.362816     -0.567176
  C       1.313443     -0.431146     -0.208110
  C       0.050579     -0.018388     -0.381194
  C      -1.122427     -0.801230     -0.033715
  C      -2.363438     -0.016186      0.322686
  H       3.121997     -0.184340     -1.291050
  H       2.243823      1.325731     -0.991282
  H       3.139324      0.526181      0.313137
  H       1.502768     -1.403103      0.229188
  H      -0.134344      0.946056     -0.838316
  H      -1.459656     -1.429797     -1.036615
  H      -0.905593     -1.602137      0.672062
  H      -3.218521     -0.677082      0.437410
  H      -2.209871      0.512578      1.264569
  H      -2.591787      0.717437     -0.446994
  O      -1.597262     -2.022612     -2.297422
  H      -0.838767     -1.699915     -2.784581
17
Coordinates from ORCA-job opt E -20.256296312580
  C       2.522068      0.362888     -0.570031
  C       1.318598     -0.428276     -0.205509
  C       0.054549     -0.009410     -0.367221
  C      -1.116045     -0.788489     -0.018408
  C      -2.368790     -0.017348      0.318389
  H       3.119627     -0.182809     -1.301209
  H       2.249202      1.328943     -0.987207
  H       3.151853      0.519414      0.306147
  H       1.506706     -1.403512      0.224633
  H      -0.128296      0.958899     -0.817082
  H      -1.437286     -1.417503     -1.042750
  H      -0.906929     -1.602431      0.673905
  H      -3.220959     -0.685284      0.410627
  H      -2.238633      0.504072      1.268467
  H      -2.587352      0.722180     -0.448374
  O      -1.611331     -2.033030     -2.288075
  H      -0.859554     -1.723440     -2.793703
17
Coordinates from ORCA-job opt E -20.256490495230
  C       2.526928      0.363492     -0.572739
  C       1.323756     -0.425666     -0.204139
  C       0.059125     -0.000792     -0.354216
  C      -1.110905     -0.778004     -0.007660
  C      -2.373837     -0.018932      0.312062
  H       3.117404     -0.179169     -1.311977
  H       2.254488      1.333326     -0.981319
  H       3.164139      0.511874      0.299580
  H       1.510311     -1.405130      0.216762
  H      -0.120832      0.973222     -0.792894
  H      -1.412370     -1.402473     -1.044855
  H      -0.909418     -1.602836      0.673686
  H      -3.223226     -0.693087      0.380115
  H      -2.267088      0.492765      1.270724
  H      -2.581815      0.728217     -0.450161
  O      -1.626168     -2.042711     -2.271389
  H      -0.883063     -1.749233     -2.798980
17
Coordinates from ORCA-job opt E -20.255640050200
  C       2.530467      0.351448     -0.608336
  C       1.330120     -0.427299     -0.213758
  C       0.066759      0.026799     -0.301792
  C      -1.109745     -0.742943      0.032726
  C      -2.406806     -0.023702      0.284654
  H       3.081073     -0.174705     -1.389471
  H       2.259892      1.339657     -0.972170
  H       3.208143      0.459271      0.240135
  H       1.507224     -1.427404      0.160267
  H      -0.094899      1.030262     -0.678529
  H      -1.303215     -1.331789     -1.007140
  H      -0.941146     -1.598272      0.686049
  H      -3.242002     -0.717712      0.232099
  H      -2.407231      0.429824      1.279860
  H      -2.560647      0.766606     -0.446750
  O      -1.586655     -2.044013     -2.178634
  H      -0.883905     -1.811163     -2.756612
17
Coordinates from ORCA-job opt E -20.256505700990
  C       2.538277      0.367448     -0.581270
  C       1.336028     -0.421109     -0.210527
  C       0.072754      0.021137     -0.323577
  C      -1.104511     -0.758269      0.001245
  C      -2.387417     -0.021751      0.286746
  H       3.107968     -0.155642     -1.350402
  H       2.266780      1.352689     -0.952115
  H       3.197116      0.482087      0.280573
  H       1.516642     -1.417649      0.171271
  H      -0.095736      1.018218     -0.713205
  H      -1.332435     -1.350047     -1.029394
  H      -0.924299     -1.599924      0.669333
  H      -3.231379     -0.706384      0.266080
  H      -2.349357      0.439648      1.276137
  H      -2.555491      0.763012     -0.447286
  O      -1.654710     -2.071032     -2.185387
  H      -0.952800     -1.837569     -2.795623
17
Coordinates from ORCA-job opt E -20.256759223340
  C       2.542252      0.378973     -0.560211
  C       1.338614     -0.416507     -0.207720
  C       0.075471      0.017132     -0.340039
  C      -1.100266     -0.767872     -0.020164
  C      -2.371115     -0.019046      0.290626
  H       3.126106     -0.142478     -1.319582
  H       2.270662      1.361817     -0.937027
  H       3.186356      0.498788      0.311561
  H       1.521721     -1.409461      0.182017
  H      -0.098644      1.006958     -0.744642
  H      -1.354880     -1.365691     -1.052372
  H      -0.909353     -1.598823      0.657509
  H      -3.220733     -0.696284      0.293857
  H      -2.302859      0.446559      1.275298
  H      -2.550682      0.762456     -0.443919
  O      -1.697691     -2.092904     -2.198514
  H      -1.007530     -1.858753     -2.824080
17
Coordinates from ORCA-job opt E -20.256807672740
  C       2.543205      0.382986     -0.551559
  C       1.338814     -0.414776     -0.205980
  C       0.075483      0.014292     -0.349217
  C      -1.099288     -0.772293     -0.028786
  C      -2.364379     -0.017738      0.294607
  H       3.134321     -0.140117     -1.304177
  H       2.271848      1.363490     -0.934601
  H       3.179574      0.507993      0.325029
  H       1.523103     -1.404512      0.191347
  H      -0.101293      0.999161     -0.764600
  H      -1.367920     -1.372251     -1.063233
  H      -0.902117     -1.599420      0.651629
  H      -3.216711     -0.691459      0.310905
  H      -2.280177      0.450546      1.276701
  H      -2.550621      0.761885     -0.440312
  O      -1.709381     -2.101280     -2.208624
  H      -1.027033     -1.861642     -2.836531
17
Coordinates from ORCA-job opt E -20.256815237580
  C       2.542401      0.382198     -0.551827
  C       1.337895     -0.414950     -0.205143
  C       0.074475      0.012843     -0.351491
  C      -1.100072     -0.773335     -0.028945
  C      -2.364209     -0.017873      0.296650
  H       3.134917     -0.143378     -1.301632
  H       2.271144      1.361161     -0.938885
  H       3.177233      0.510667      0.325372
  H       1.522409     -1.403040      0.196153
  H      -0.102703      0.996009     -0.770727
  H      -1.371992     -1.372603     -1.063321
  H      -0.901665     -1.600461      0.651109
  H      -3.216906     -0.691065      0.316919
  H      -2.276371      0.452170      1.277678
  H      -2.552419      0.760503     -0.439080
  O      -1.704555     -2.099303     -2.212803
  H      -1.022152     -1.854678     -2.837428
17
Coordinates from ORCA-job opt E -20.256821621880
  C       2.542147      0.382317     -0.550718
  C       1.337547     -0.414592     -0.203581
  C       0.074107      0.010875     -0.355075
  C      -1.100317     -0.775517     -0.030987
  C      -2.362908     -0.018568      0.298390
  H       3.137312     -0.146155     -1.296369
  H       2.270902      1.359133     -0.943185
  H       3.174194      0.515585      0.327764
  H       1.522458     -1.400517      0.202830
  H      -0.103701      0.991847     -0.779115
  H      -1.376280     -1.372625     -1.063822
  H      -0.900620     -1.602027      0.649441
  H      -3.216172     -0.690894      0.323632
  H      -2.270034      0.453178      1.278164
  H      -2.553636      0.758594     -0.437969
  O      -1.705016     -2.096289     -2.216316
  H      -1.022554     -1.849481     -2.840486
17
Coordinates from ORCA-job opt E -20.256824538890
  C       2.541471      0.381615     -0.551239
  C       1.336929     -0.414710     -0.202439
  C       0.073492      0.009308     -0.356882
  C      -1.100833     -0.776869     -0.031234
  C      -2.362752     -0.019220      0.299755
  H       3.137862     -0.149338     -1.294108
  H       2.270138      1.356749     -0.947783
  H       3.172282      0.518623      0.327557
  H       1.522074     -1.399120      0.207533
  H      -0.104601      0.988901     -0.783895
  H      -1.378692     -1.372040     -1.062768
  H      -0.900898     -1.603078      0.649434
  H      -3.216064     -0.691294      0.328047
  H      -2.267517      0.454093      1.278524
  H      -2.554966      0.756819     -0.437386
  O      -1.702367     -2.091744     -2.219168
  H      -1.018129     -1.843831     -2.841348
17
Coordinates from ORCA-job opt E -20.256825042910
  C       2.541405      0.381684     -0.551017
  C       1.336835     -0.414870     -0.202794
  C       0.073414      0.008966     -0.357641
  C      -1.100893     -0.777195     -0.031686
  C      -2.362501     -0.019187      0.299921
  H       3.138250     -0.149186     -1.293586
  H       2.270091      1.356795     -0.947684
  H       3.171782      0.518816      0.328095
  H       1.521961     -1.399205      0.207422
  H      -0.104761      0.988564     -0.784654
  H      -1.379588     -1.372515     -1.062442
  H      -0.900756     -1.602878      0.649528
  H      -3.215821     -0.691209      0.329013
  H      -2.266687      0.454561      1.278387
  H      -2.555124      0.756550     -0.437427
  O      -1.702361     -2.091452     -2.219571
  H      -1.017816     -1.843375     -2.841265
17
Coordinates from ORCA-job opt E -20.258649942880
  C       2.541212      0.381153     -0.551492
  C       1.336621     -0.416176     -0.205118
  C       0.073190      0.007486     -0.360352
  C      -1.101126     -0.779416     -0.036211
  C      -2.363126     -0.022044      0.295357
  H       3.138744     -0.148629     -1.294286
  H       2.269902      1.356676     -0.947153
  H       3.170916      0.517384      0.328243
  H       1.521736     -1.400964      0.204018
  H      -0.104961      0.987559     -0.786286
  H      -1.378886     -1.373545     -1.067908
  H      -0.901125     -1.605876      0.644100
  H      -3.216337     -0.694266      0.323027
  H      -2.268126      0.450571      1.274451
  H      -2.555355      0.754524     -0.441220
  O      -1.697038     -2.071844     -2.185355
  H      -1.018812     -1.837728     -2.831215
17
Coordinates from ORCA-job opt E -20.258815122240
  C       2.541431      0.380892     -0.552317
  C       1.337014     -0.415746     -0.203244
  C       0.073114      0.008551     -0.356731
  C      -1.100053     -0.777322     -0.031970
  C      -2.363182     -0.021299      0.296495
  H       3.137573     -0.149527     -1.295838
  H       2.269708      1.356190     -0.948205
  H       3.172735      0.517720      0.326188
  H       1.522394     -1.400372      0.206101
  H      -0.105250      0.988062     -0.783811
  H      -1.380392     -1.378589     -1.074148
  H      -0.900685     -1.604151      0.647982
  H      -3.215804     -0.694490      0.322637
  H      -2.270773      0.451766      1.275651
  H      -2.554644      0.754819     -0.440821
  O      -1.697027     -2.072159     -2.194967
  H      -1.018731     -1.839480     -2.830404
17
Coordinates from ORCA-job opt E -20.258866757800
  C       2.541522      0.379985     -0.554180
  C       1.337514     -0.415906     -0.202240
  C       0.072975      0.009663     -0.352648
  C      -1.098558     -0.774187     -0.025921
  C      -2.364144     -0.021143      0.296679
  H       3.135639     -0.150739     -1.299111
  H       2.269312      1.355381     -0.949514
  H       3.175077      0.516664      0.322747
  H       1.523135     -1.400470      0.207061
  H      -0.105398      0.988960     -0.780295
  H      -1.380280     -1.381726     -1.077144
  H      -0.900629     -1.602839      0.651718
  H      -3.215543     -0.696084      0.319631
  H      -2.276789      0.452326      1.276172
  H      -2.554189      0.754445     -0.441584
  O      -1.697502     -2.070681     -2.200640
  H      -1.014712     -1.838786     -2.828132
17
Coordinates from ORCA-job opt E -20.258882896190
  C       2.541471      0.378791     -0.556517
  C       1.337851     -0.416346     -0.202029
  C       0.072837      0.010475     -0.349544
  C      -1.097614     -0.771573     -0.020890
  C      -2.365779     -0.021461      0.296179
  H       3.133690     -0.152166     -1.302826
  H       2.268940      1.354389     -0.951159
  H       3.177127      0.515054      0.318969
  H       1.523518     -1.401043      0.206859
  H      -0.105195      0.989989     -0.776928
  H      -1.379015     -1.382368     -1.076626
  H      -0.901267     -1.602567      0.654042
  H      -3.216042     -0.697947      0.315431
  H      -2.283671      0.451867      1.276315
  H      -2.554162      0.754107     -0.442518
  O      -1.696619     -2.068288     -2.201869
  H      -1.008642     -1.836048     -2.824291
17
Coordinates from ORCA-job opt E -20.258888273810
  C       2.541259      0.377635     -0.558813
  C       1.337937     -0.416819     -0.202211
  C       0.072661      0.011019     -0.347445
  C      -1.097286     -0.769758     -0.017450
  C      -2.367466     -0.021861      0.295511
  H       3.131930     -0.153527     -1.306237
  H       2.268563      1.353433     -0.952859
  H       3.178642      0.513469      0.315502
  H       1.523494     -1.401779      0.206040
  H      -0.104821      0.991023     -0.773991
  H      -1.377506     -1.381882     -1.074607
  H      -0.902321     -1.602798      0.655264
  H      -3.216959     -0.699363      0.311117
  H      -2.289805      0.450689      1.276496
  H      -2.554093      0.754294     -0.442987
  O      -1.694434     -2.066154     -2.201044
  H      -1.002366     -1.832755     -2.819688
17
Coordinates from ORCA-job opt E -20.258889387980
  C       2.541029      0.377100     -0.559953
  C       1.337813     -0.417059     -0.202497
  C       0.072510      0.011209     -0.346796
  C      -1.097452     -0.769204     -0.016506
  C      -2.368272     -0.021971      0.295185
  H       3.131053     -0.154096     -1.307875
  H       2.268314      1.353028     -0.953662
  H       3.179151      0.512651      0.313881
  H       1.523237     -1.402249      0.205249
  H      -0.104592      0.991618     -0.772576
  H      -1.376776     -1.381455     -1.073198
  H      -0.903067     -1.602974      0.655508
  H      -3.217644     -0.699642      0.308737
  H      -2.292493      0.449626      1.276815
  H      -2.553790      0.754988     -0.442738
  O      -1.692566     -2.065619     -2.200020
  H      -0.999026     -1.831088     -2.816954
17
Coordinates from ORCA-job opt E -20.258889769520
  C       2.540807      0.376856     -0.560563
  C       1.337626     -0.417197     -0.202811
  C       0.072357      0.011302     -0.346611
  C      -1.097734     -0.769055     -0.016398
  C      -2.368642     -0.021878      0.295060
  H       3.130512     -0.154239     -1.308808
  H       2.268107      1.352919     -0.953942
  H       3.179299      0.512112      0.313056
  H       1.522940     -1.402599      0.204478
  H      -0.104493      0.992034     -0.771755
  H      -1.376489     -1.381398     -1.072402
  H      -0.903579     -1.602936      0.655599
  H      -3.218161     -0.699387      0.307153
  H      -2.293749      0.448681      1.277260
  H      -2.553293      0.755955     -0.442165
  O      -1.691091     -2.065944     -2.199324
  H      -0.996987     -1.830362     -2.815230
17
Coordinates from ORCA-job opt E -20.260918511590
  C       2.539517      0.374765     -0.563287
  C       1.336319     -0.419718     -0.206546
  C       0.071038      0.008644     -0.350645
  C      -1.099061     -0.772120     -0.021420
  C      -2.370249     -0.025377      0.289936
  H       3.129646     -0.155773     -1.311593
  H       2.266818      1.351018     -0.956196
  H       3.177600      0.509606      0.310696
  H       1.521628     -1.405333      0.200230
  H      -0.105799      0.989601     -0.775274
  H      -1.377240     -1.383875     -1.077917
  H      -0.905054     -1.606373      0.650159
  H      -3.219644     -0.703056      0.301244
  H      -2.295877      0.444597      1.272456
  H      -2.554725      0.752871     -0.446895
  O      -1.680905     -2.045355     -2.168442
  H      -0.986585     -1.809257     -2.783907
17
Coordinates from ORCA-job opt E -20.261055218600
  C       2.540137      0.375133     -0.563147
  C       1.337008     -0.418748     -0.204297
  C       0.071260      0.010505     -0.346483
  C      -1.097656     -0.769163     -0.016809
  C      -2.369782     -0.023784      0.291828
  H       3.128981     -0.155693     -1.312347
  H       2.267187      1.351425     -0.955811
  H       3.179666      0.510042      0.309802
  H       1.522452     -1.404365      0.202413
  H      -0.105686      0.991224     -0.771616
  H      -1.379333     -1.389097     -1.086042
  H      -0.904166     -1.604147      0.653865
  H      -3.218697     -0.702252      0.301161
  H      -2.297966      0.445971      1.274648
  H      -2.553301      0.754533     -0.445231
  O      -1.683059     -2.051070     -2.176250
  H      -0.989617     -1.815648     -2.793086
17
Coordinates from ORCA-job opt E -20.261134020150
  C       2.540507      0.374299     -0.564939
  C       1.337802     -0.418439     -0.202585
  C       0.071190      0.013125     -0.339978
  C      -1.095254     -0.763397     -0.007472
  C      -2.370736     -0.022530      0.292943
  H       3.126334     -0.156565     -1.316486
  H       2.267199      1.351129     -0.956075
  H       3.183227      0.508120      0.305880
  H       1.523298     -1.404276      0.203422
  H      -0.105539      0.993901     -0.765221
  H      -1.379618     -1.392902     -1.092137
  H      -0.903694     -1.601788      0.658633
  H      -3.217931     -0.703350      0.296726
  H      -2.306500      0.446629      1.276662
  H      -2.551842      0.755931     -0.444636
  O      -1.681921     -2.055364     -2.182444
  H      -0.989092     -1.819660     -2.799694
17
Coordinates from ORCA-job opt E -20.261147271480
  C       2.540550      0.373127     -0.567218
  C       1.338183     -0.418685     -0.202287
  C       0.071130      0.014367     -0.336607
  C      -1.094269     -0.760207     -0.002022
  C      -2.372505     -0.022623      0.292533
  H       3.124296     -0.157949     -1.320280
  H       2.267111      1.350295     -0.957442
  H       3.185488      0.506215      0.302096
  H       1.523511     -1.404830      0.202934
  H      -0.105008      0.995554     -0.761250
  H      -1.378060     -1.392509     -1.091521
  H      -0.904404     -1.601647      0.660437
  H      -3.218468     -0.704983      0.291592
  H      -2.314255      0.445539      1.277246
  H      -2.551527      0.756494     -0.444854
  O      -1.678756     -2.055080     -2.182207
  H      -0.985589     -1.818213     -2.798552
17
Coordinates from ORCA-job opt E -20.261152298730
  C       2.540452      0.371944     -0.569645
  C       1.338412     -0.418982     -0.202234
  C       0.071089      0.015247     -0.334098
  C      -1.093760     -0.757838      0.002070
  C      -2.374359     -0.023002      0.291738
  H       3.122411     -0.159468     -1.323896
  H       2.266930      1.349328     -0.959276
  H       3.187347      0.504558      0.298312
  H       1.523464     -1.405476      0.202180
  H      -0.104250      0.997045     -0.757712
  H      -1.375987     -1.391281     -1.089236
  H      -0.905552     -1.602010      0.661407
  H      -3.219360     -0.706481      0.285726
  H      -2.321771      0.443447      1.277722
  H      -2.550989      0.757439     -0.444795
  O      -1.675146     -2.054019     -2.180242
  H      -0.981502     -1.815586     -2.795423
17
Coordinates from ORCA-job opt E -20.261153288930
  C       2.540346      0.371521     -0.570691
  C       1.338448     -0.419089     -0.202310
  C       0.071086      0.015496     -0.333397
  C      -1.093747     -0.757186      0.003121
  C      -2.375083     -0.023174      0.291262
  H       3.121690     -0.160033     -1.325327
  H       2.266789      1.348957     -0.960162
  H       3.187967      0.504024      0.296759
  H       1.523334     -1.405764      0.201722
  H      -0.103806      0.997678     -0.756312
  H      -1.374876     -1.390734     -1.087727
  H      -0.906217     -1.602212      0.661571
  H      -3.219906     -0.706817      0.282449
  H      -2.324903      0.441769      1.278128
  H      -2.550256      0.758506     -0.444297
  O      -1.673552     -2.053745     -2.178699
  H      -0.979887     -1.814333     -2.793491
17
Coordinates from ORCA-job opt E -20.263427741270
  C       2.539083      0.369435     -0.573417
  C       1.337163     -0.421612     -0.206047
  C       0.069781      0.012825     -0.337432
  C      -1.095062     -0.760268     -0.001898
  C      -2.376666     -0.026678      0.286127
  H       3.120856     -0.161557     -1.328117
  H       2.265524      1.347058     -0.962416
  H       3.186296      0.501528      0.294400
  H       1.522046     -1.408499      0.197468
  H      -0.105098      0.995233     -0.759829
  H      -1.375593     -1.393206     -1.093254
  H      -0.907673     -1.605659      0.656123
  H      -3.221354     -0.710478      0.276524
  H      -2.327010      0.437671      1.273300
  H      -2.551665      0.755418     -0.449031
  O      -1.663541     -2.033137     -2.147778
  H      -0.969659     -1.793209     -2.762125
17
Coordinates from ORCA-job opt E -20.263597689140
  C       2.539811      0.369935     -0.573230
  C       1.338016     -0.420392     -0.203336
  C       0.070126      0.015017     -0.332645
  C      -1.093473     -0.756809      0.003501
  C      -2.376104     -0.024766      0.288450
  H       3.120148     -0.161491     -1.328829
  H       2.265962      1.347532     -0.962116
  H       3.188659      0.502262      0.293375
  H       1.523017     -1.407235      0.200238
  H      -0.104789      0.997197     -0.755559
  H      -1.377930     -1.399421     -1.102856
  H      -0.906732     -1.603120      0.660357
  H      -3.220213     -0.709408      0.276186
  H      -2.329606      0.438982      1.276061
  H      -2.549796      0.757701     -0.446693
  O      -1.666233     -2.039880     -2.156961
  H      -0.973435     -1.801240     -2.773344
17
Coordinates from ORCA-job opt E -20.263732190950
  C       2.540309      0.369048     -0.575440
  C       1.339174     -0.419620     -0.200463
  C       0.070174      0.018782     -0.323608
  C      -1.090224     -0.748794      0.016535
  C      -2.377054     -0.022721      0.290533
  H       3.116624     -0.162741     -1.333882
  H       2.265977      1.347175     -0.962731
  H       3.193416      0.500343      0.288194
  H       1.524192     -1.406628      0.202518
  H      -0.104355      1.000960     -0.746865
  H      -1.378447     -1.405596     -1.112760
  H      -0.906046     -1.599707      0.667074
  H      -3.218714     -0.710388      0.270072
  H      -2.341127      0.439455      1.279427
  H      -2.547125      0.760512     -0.444748
  O      -1.665573     -2.046609     -2.166849
  H      -0.973774     -1.808606     -2.784409
17
Coordinates from ORCA-job opt E -20.263762312070
  C       2.540345      0.367476     -0.578610
  C       1.339794     -0.419741     -0.199554
  C       0.070113      0.020861     -0.318220
  C      -1.088597     -0.743566      0.025488
  C      -2.379300     -0.022459      0.290531
  H       3.113545     -0.164829     -1.339119
  H       2.265799      1.345981     -0.964834
  H       3.196751      0.497954      0.282687
  H       1.524564     -1.407058      0.202616
  H      -0.103555      1.003489     -0.740937
  H      -1.376429     -1.406170     -1.113853
  H      -0.906863     -1.599055      0.670257
  H      -3.218906     -0.712398      0.262580
  H      -2.352614      0.437746      1.280832
  H      -2.546093      0.762032     -0.444157
  O      -1.661728     -2.047283     -2.168378
  H      -0.969398     -1.808115     -2.784731
17
Coordinates from ORCA-job opt E -20.263773108270
  C       2.540136      0.365852     -0.581973
  C       1.340133     -0.420005     -0.199105
  C       0.070024      0.022269     -0.314386
  C      -1.087725     -0.739671      0.032270
  C      -2.381678     -0.022681      0.289940
  H       3.110767     -0.167178     -1.343973
  H       2.265455      1.344526     -0.967682
  H       3.199329      0.495953      0.277293
  H       1.524516     -1.407654      0.202304
  H      -0.102532      1.005573     -0.736057
  H      -1.373643     -1.405262     -1.112270
  H      -0.908307     -1.599245      0.672018
  H      -3.219638     -0.714228      0.254305
  H      -2.363447      0.434616      1.281964
  H      -2.544954      0.763934     -0.443228
  O      -1.657169     -2.046503     -2.167195
  H      -0.963840     -1.805432     -2.781626
17
Coordinates from ORCA-job opt E -20.263775443580
  C       2.539911      0.365140     -0.583626
  C       1.340159     -0.420138     -0.199070
  C       0.069957      0.022664     -0.313289
  C      -1.087654     -0.738406      0.034396
  C      -2.382756     -0.022866      0.289452
  H       3.109600     -0.168313     -1.346055
  H       2.265175      1.343786     -0.969359
  H       3.200197      0.495307      0.274817
  H       1.524292     -1.407947      0.202030
  H      -0.101946      1.006407     -0.734208
  H      -1.371907     -1.404511     -1.110512
  H      -0.909271     -1.599538      0.672304
  H      -3.220256     -0.714697      0.249332
  H      -2.368406      0.431914      1.282766
  H      -2.543837      0.765720     -0.442067
  O      -1.654807     -2.046018     -2.165443
  H      -0.961022     -1.803641     -2.778869
17
Coordinates from ORCA-job opt E -20.263776350440
  C       2.539741      0.364901     -0.584427
  C       1.340107     -0.420166     -0.199171
  C       0.069913      0.022748     -0.313164
  C      -1.087796     -0.738079      0.034749
  C      -2.383178     -0.022889      0.289102
  H       3.109133     -0.168751     -1.346941
  H       2.264967      1.343492     -0.970259
  H       3.200435      0.495198      0.273700
  H       1.524090     -1.408053      0.201803
  H      -0.101618      1.006754     -0.733621
  H      -1.370720     -1.404241     -1.109172
  H      -0.909853     -1.599604      0.672277
  H      -3.220745     -0.714430      0.245599
  H      -2.370891      0.429348      1.283621
  H      -2.542522      0.767694     -0.440636
  O      -1.653655     -2.046190     -2.163826
  H      -0.959981     -1.802868     -2.777037
17
Coordinates from ORCA-job opt E -20.266513076050
  C       2.538509      0.362815     -0.587165
  C       1.338844     -0.422699     -0.202914
  C       0.068622      0.020058     -0.317198
  C      -1.089105     -0.741185      0.029743
  C      -2.384734     -0.026396      0.283966
  H       3.108331     -0.170273     -1.349752
  H       2.263731      1.341592     -0.972525
  H       3.198801      0.492709      0.271333
  H       1.522826     -1.410797      0.197542
  H      -0.102898      1.004289     -0.737134
  H      -1.371405     -1.406704     -1.114707
  H      -0.911292     -1.603065      0.666828
  H      -3.222151     -0.718069      0.239673
  H      -2.372968      0.425235      1.278766
  H      -2.543908      0.764603     -0.445359
  O      -1.643833     -2.025541     -2.132868
  H      -0.949941     -1.781710     -2.745631
17
Coordinates from ORCA-job opt E -20.266728201620
  C       2.539383      0.363641     -0.586506
  C       1.339842     -0.421111     -0.199688
  C       0.069110      0.022637     -0.311932
  C      -1.087320     -0.737251      0.035837
  C      -2.383786     -0.023906      0.287100
  H       3.107794     -0.169969     -1.349891
  H       2.264313      1.342339     -0.971890
  H       3.201253      0.493901      0.270769
  H       1.523977     -1.409052      0.201091
  H      -0.102556      1.006478     -0.732722
  H      -1.374505     -1.414668     -1.126968
  H      -0.910013     -1.599895      0.671831
  H      -3.220586     -0.716348      0.240164
  H      -2.375038      0.426981      1.282252
  H      -2.541712      0.767495     -0.442130
  O      -1.647577     -2.034145     -2.144566
  H      -0.955152     -1.792263     -2.760152
17
Coordinates from ORCA-job opt E -20.267007809430
  C       2.540285      0.363059     -0.588594
  C       1.341741     -0.418998     -0.193936
  C       0.069495      0.028983     -0.297684
  C      -1.082321     -0.724571      0.056712
  C      -2.384091     -0.019471      0.292503
  H       3.102930     -0.171711     -1.355482
  H       2.264553      1.342182     -0.972555
  H       3.208079      0.492580      0.264289
  H       1.526009     -1.406747      0.207014
  H      -0.101932      1.012221     -0.720218
  H      -1.377220     -1.428089     -1.148747
  H      -0.908212     -1.593509      0.683543
  H      -3.216994     -0.716121      0.234358
  H      -2.389994      0.429056      1.288843
  H      -2.537275      0.772818     -0.436941
  O      -1.649100     -2.048359     -2.166182
  H      -0.958525     -1.808460     -2.784322
17
Coordinates from ORCA-job opt E -20.267069129420
  C       2.540095      0.360816     -0.592931
  C       1.342495     -0.418811     -0.191727
  C       0.069323      0.032347     -0.289254
  C      -1.079835     -0.716196      0.071459
  C      -2.386754     -0.018412      0.293887
  H       3.098171     -0.175349     -1.362286
  H       2.264073      1.340162     -0.976175
  H       3.212585      0.489848      0.256397
  H       1.526462     -1.406630      0.208964
  H      -0.101062      1.015806     -0.711892
  H      -1.374966     -1.430851     -1.154256
  H      -0.908990     -1.591804      0.689168
  H      -3.216097     -0.718456      0.225369
  H      -2.405999      0.427378      1.291529
  H      -2.535609      0.775355     -0.434854
  O      -1.644139     -2.050994     -2.172488
  H      -0.952325     -1.809346     -2.788311
17
Coordinates from ORCA-job opt E -20.267095407230
  C       2.539346      0.358314     -0.597508
  C       1.342487     -0.419379     -0.191204
  C       0.068858      0.033740     -0.285056
  C      -1.079021     -0.711408      0.080345
  C      -2.389726     -0.018936      0.293340
  H       3.094364     -0.179315     -1.368144
  H       2.263199      1.337565     -0.980909
  H       3.215079      0.487520      0.249272
  H       1.525959     -1.407326      0.209249
  H      -0.100208      1.017816     -0.706859
  H      -1.370847     -1.428642     -1.151725
  H      -0.910884     -1.592328      0.690881
  H      -3.216477     -0.721064      0.215739
  H      -2.419450      0.423366      1.292492
  H      -2.534673      0.777214     -0.433536
  O      -1.637330     -2.048451     -2.170867
  H      -0.943250     -1.803822     -2.782911
17
Coordinates from ORCA-job opt E -20.267106371300
  C       2.538452      0.356166     -0.601611
  C       1.342195     -0.419996     -0.191197
  C       0.068348      0.034272     -0.283069
  C      -1.079026     -0.708532      0.085653
  C      -2.392299     -0.019702      0.292351
  H       3.091465     -0.182896     -1.372736
  H       2.262190      1.335089     -0.985744
  H       3.216450      0.486085      0.243304
  H       1.525122     -1.408037      0.209175
  H      -0.099337      1.019098     -0.703675
  H      -1.366420     -1.425457     -1.146944
  H      -0.913088     -1.593395      0.690946
  H      -3.217335     -0.722730      0.205693
  H      -2.430578      0.417665      1.293542
  H      -2.533200      0.780153     -0.431202
  O      -1.630840     -2.045212     -2.166656
  H      -0.934672     -1.797705     -2.775229
17
Coordinates from ORCA-job opt E -20.267107763770
  C       2.538213      0.355902     -0.602392
  C       1.342066     -0.420027     -0.191279
  C       0.068238      0.034251     -0.283251
  C      -1.079279     -0.708304      0.085749
  C      -2.392674     -0.019688      0.292146
  H       3.091097     -0.183498     -1.373367
  H       2.261894      1.334654     -0.986910
  H       3.216455      0.486225      0.242282
  H       1.524841     -1.408062      0.209172
  H      -0.099080      1.019279     -0.703523
  H      -1.365168     -1.424997     -1.145573
  H      -0.913709     -1.593511      0.690683
  H      -3.217734     -0.722247      0.201986
  H      -2.432836      0.414756      1.294542
  H      -2.531927      0.782426     -0.429222
  O      -1.629608     -2.045125     -2.165053
  H      -0.933360     -1.797173     -2.773391
17
Coordinates from ORCA-job opt E -20.270609395420
  C       2.537026      0.353817     -0.605157
  C       1.340835     -0.422571     -0.195035
  C       0.066969      0.031539     -0.287287
  C      -1.080579     -0.711442      0.080762
  C      -2.394190     -0.023192      0.287008
  H       3.090340     -0.185019     -1.376218
  H       2.260703      1.332753     -0.989202
  H       3.214877      0.483747      0.239892
  H       1.523609     -1.410817      0.204896
  H      -0.100340      1.016792     -0.707035
  H      -1.365804     -1.427438     -1.151119
  H      -0.915118     -1.596985      0.685231
  H      -3.219082     -0.725846      0.196063
  H      -2.434866      0.410635      1.289652
  H      -2.533276      0.779336     -0.433932
  O      -1.620071     -2.024447     -2.134018
  H      -0.923605     -1.775999     -2.741903
17
Coordinates from ORCA-job opt E -20.270808933640
  C       2.538112      0.355686     -0.603354
  C       1.341820     -0.420354     -0.192227
  C       0.067662      0.035225     -0.281881
  C      -1.078952     -0.706776      0.085619
  C      -2.392624     -0.019339      0.291051
  H       3.090050     -0.182471     -1.375984
  H       2.261800      1.335263     -0.985808
  H       3.217380      0.484394      0.240798
  H       1.524410     -1.409177      0.206371
  H      -0.099444      1.020914     -0.700681
  H      -1.369311     -1.433948     -1.167658
  H      -0.913997     -1.594042      0.687911
  H      -3.217364     -0.721819      0.195879
  H      -2.435719      0.411125      1.295004
  H      -2.529990      0.785588     -0.427608
  O      -1.625514     -2.038135     -2.145655
  H      -0.930890     -1.797270     -2.759177
17
Coordinates from ORCA-job opt E -20.270998863170
  C       2.538615      0.356542     -0.603510
  C       1.342945     -0.418068     -0.188207
  C       0.067825      0.041144     -0.270877
  C      -1.075349     -0.696654      0.099858
  C      -2.391393     -0.014222      0.296376
  H       3.086443     -0.181116     -1.379453
  H       2.262000      1.337118     -0.983280
  H       3.222012      0.483240      0.237699
  H       1.525344     -1.407451      0.208897
  H      -0.098817      1.027124     -0.689403
  H      -1.371605     -1.442705     -1.189855
  H      -0.912718     -1.588461      0.694977
  H      -3.213785     -0.718175      0.189703
  H      -2.445098      0.409886      1.302539
  H      -2.524013      0.794781     -0.418766
  O      -1.628974     -2.054746     -2.162649
  H      -0.936004     -1.823373     -2.781452
17
Coordinates from ORCA-job opt E -20.271078739350
  C       2.538487      0.355156     -0.606859
  C       1.343850     -0.417333     -0.185478
  C       0.067780      0.044961     -0.262038
  C      -1.072610     -0.688080      0.114743
  C      -2.392828     -0.012135      0.298905
  H       3.082189     -0.183662     -1.384992
  H       2.261424      1.335866     -0.986029
  H       3.226151      0.481645      0.230977
  H       1.526053     -1.406642      0.211659
  H      -0.097874      1.030977     -0.681086
  H      -1.370017     -1.446721     -1.199992
  H      -0.912979     -1.585236      0.701886
  H      -3.211684     -0.718403      0.179693
  H      -2.460112      0.406287      1.306794
  H      -2.520398      0.800287     -0.413301
  O      -1.627180     -2.060058     -2.172024
  H      -0.932825     -1.832044     -2.790258
17
Coordinates from ORCA-job opt E -20.271136639370
  C       2.537722      0.351945     -0.613277
  C       1.344673     -0.417061     -0.182233
  C       0.067654      0.048560     -0.252359
  C      -1.069838     -0.678030      0.133909
  C      -2.396086     -0.011312      0.300689
  H       3.076320     -0.190086     -1.392861
  H       2.259993      1.331894     -0.993977
  H       3.230791      0.480182      0.219932
  H       1.526506     -1.405754      0.216343
  H      -0.096220      1.034524     -0.672345
  H      -1.365416     -1.448868     -1.205836
  H      -0.914442     -1.582597      0.710005
  H      -3.209421     -0.720824      0.163574
  H      -2.482909      0.398864      1.310711
  H      -2.516581      0.806048     -0.407019
  O      -1.621869     -2.059981     -2.179454
  H      -0.923448     -1.832639     -2.793204
17
Coordinates from ORCA-job opt E -20.271158973290
  C       2.536788      0.348992     -0.618740
  C       1.344860     -0.417173     -0.180192
  C       0.067467      0.050015     -0.247634
  C      -1.068673     -0.672190      0.145837
  C      -2.398962     -0.011803      0.301147
  H       3.072440     -0.196496     -1.398012
  H       2.258560      1.327653     -1.002378
  H       3.233097      0.480077      0.211394
  H       1.526386     -1.405023      0.220508
  H      -0.095023      1.035862     -0.668430
  H      -1.360620     -1.448347     -1.205093
  H      -0.916072     -1.581832      0.714247
  H      -3.208161     -0.723251      0.150153
  H      -2.499849      0.391093      1.312931
  H      -2.514082      0.810093     -0.402123
  O      -1.616576     -2.055764     -2.181152
  H      -0.914151     -1.827041     -2.789862
17
Coordinates from ORCA-job opt E -20.271167329270
  C       2.536044      0.347100     -0.622066
  C       1.344583     -0.417366     -0.179440
  C       0.067206      0.050081     -0.246918
  C      -1.068724     -0.670061      0.150356
  C      -2.400767     -0.012527      0.301017
  H       3.070725     -0.200926     -1.400230
  H       2.257582      1.324609     -1.008439
  H       3.233498      0.480698      0.206742
  H       1.525944     -1.404498      0.223103
  H      -0.094666      1.035755     -0.668318
  H      -1.356881     -1.446785     -1.201460
  H      -0.917237     -1.582066      0.715109
  H      -3.207926     -0.724351      0.141099
  H      -2.509013      0.384502      1.314391
  H      -2.512497      0.813231     -0.398232
  O      -1.612708     -2.051267     -2.179373
  H      -0.907733     -1.821264     -2.784742
17
Coordinates from ORCA-job opt E -20.271170724790
  C       2.535557      0.346237     -0.623573
  C       1.344099     -0.417471     -0.179555
  C       0.066883      0.049776     -0.247971
  C      -1.069320     -0.669817      0.150480
  C      -2.401602     -0.012820      0.300870
  H       3.070255     -0.203115     -1.400768
  H       2.257091      1.323086     -1.011594
  H       3.233020      0.481267      0.205003
  H       1.525392     -1.404189      0.224058
  H      -0.094938      1.035287     -0.669744
  H      -1.354323     -1.445447     -1.197981
  H      -0.917882     -1.582382      0.714322
  H      -3.208286     -0.723910      0.135321
  H      -2.512716      0.379278      1.315825
  H      -2.511228      0.816302     -0.394706
  O      -1.610305     -2.048676     -2.176628
  H      -0.904269     -1.818543     -2.780760
17
Coordinates from ORCA-job opt E -20.271172472740
  C       2.535248      0.346007     -0.624134
  C       1.343609     -0.417434     -0.180033
  C       0.066548      0.049735     -0.249083
  C      -1.069970     -0.669869      0.149306
  C      -2.401891     -0.012512      0.300978
  H       3.070110     -0.203782     -1.400890
  H       2.256908      1.322667     -1.012713
  H       3.232473      0.481439      0.204571
  H       1.524854     -1.404025      0.223927
  H      -0.095409      1.035162     -0.670992
  H      -1.352538     -1.444871     -1.196037
  H      -0.918243     -1.582304      0.713336
  H      -3.208791     -0.722311      0.130852
  H      -2.514232      0.374777      1.317601
  H      -2.509822      0.819882     -0.390935
  O      -1.608830     -2.048384     -2.174427
  H      -0.902597     -1.819313     -2.778728
17
Coordinates from ORCA-job opt E -20.271173977070
  C       2.534941      0.346015     -0.624563
  C       1.343064     -0.417258     -0.180723
  C       0.066149      0.050144     -0.249834
  C      -1.070643     -0.669477      0.148196
  C      -2.402052     -0.011589      0.301411
  H       3.069762     -0.203803     -1.401315
  H       2.256812      1.322773     -1.013046
  H       3.232066      0.481219      0.204256
  H       1.524214     -1.403900      0.223147
  H      -0.095905      1.035584     -0.671675
  H      -1.350644     -1.444949     -1.195253
  H      -0.918650     -1.581704      0.712584
  H      -3.209349     -0.719487      0.125068
  H      -2.516077      0.369107      1.320283
  H      -2.507671      0.825186     -0.385541
  O      -1.607377     -2.049942     -2.172613
  H      -0.901212     -1.823055     -2.777785
17
Coordinates from ORCA-job opt E -20.271175042520
  C       2.534661      0.346133     -0.625036
  C       1.342614     -0.416996     -0.181384
  C       0.065805      0.050952     -0.249810
  C      -1.071112     -0.668489      0.148027
  C      -2.402183     -0.010300      0.302047
  H       3.069101     -0.203430     -1.402234
  H       2.256751      1.323203     -1.012896
  H       3.232015      0.480641      0.203700
  H       1.523617     -1.403848      0.222025
  H      -0.096157      1.036537     -0.671352
  H      -1.348936     -1.445675     -1.195777
  H      -0.919132     -1.580687      0.712545
  H      -3.209752     -0.716190      0.118662
  H      -2.518667      0.363244      1.323242
  H      -2.505157      0.831094     -0.379622
  O      -1.606061     -2.052844     -2.171684
  H      -0.899977     -1.828482     -2.777854
17
Coordinates from ORCA-job opt E -20.275337967510
  C       2.533480      0.343976     -0.627883
  C       1.341376     -0.419603     -0.185156
  C       0.064520      0.048180     -0.253827
  C      -1.072443     -0.671674      0.143134
  C      -2.403687     -0.013803      0.297003
  H       3.068323     -0.205050     -1.405183
  H       2.255569      1.321226     -1.015288
  H       3.230477      0.478116      0.201213
  H       1.522375     -1.406659      0.217754
  H      -0.097431      1.033983     -0.674863
  H      -1.349596     -1.448127     -1.201234
  H      -0.920545     -1.584176      0.707184
  H      -3.211062     -0.719723      0.112883
  H      -2.520645      0.359127      1.318369
  H      -2.506531      0.827971     -0.384217
  O      -1.596524     -2.031862     -2.140768
  H      -0.890230     -1.807037     -2.746522
17
Coordinates from ORCA-job opt E -20.275531463680
  C       2.534207      0.345705     -0.626115
  C       1.342007     -0.417363     -0.182182
  C       0.065045      0.051980     -0.248042
  C      -1.071119     -0.666809      0.149104
  C      -2.402251     -0.009268      0.302225
  H       3.067499     -0.202812     -1.404954
  H       2.256418      1.323588     -1.012044
  H       3.232672      0.478609      0.201990
  H       1.522775     -1.404912      0.219643
  H      -0.096638      1.038123     -0.668373
  H      -1.354576     -1.457068     -1.220100
  H      -0.919813     -1.580716      0.711429
  H      -3.209491     -0.714986      0.115994
  H      -2.520542      0.362049      1.323988
  H      -2.504236      0.833510     -0.377925
  O      -1.599257     -2.047883     -2.155788
  H      -0.895272     -1.826884     -2.766252
17
Coordinates from ORCA-job opt E -20.275761073980
  C       2.534261      0.346768     -0.625756
  C       1.342776     -0.414109     -0.176182
  C       0.065188      0.059709     -0.233446
  C      -1.067350     -0.654138      0.168417
  C      -2.400500     -0.001381      0.311720
  H       3.062295     -0.201664     -1.408313
  H       2.256353      1.325736     -1.008959
  H       3.237682      0.477481      0.198585
  H       1.523250     -1.402179      0.224303
  H      -0.095889      1.046043     -0.653767
  H      -1.360984     -1.473313     -1.254563
  H      -0.918673     -1.572526      0.722985
  H      -3.204590     -0.709028      0.117526
  H      -2.528379      0.366731      1.333474
  H      -2.499520      0.842837     -0.367271
  O      -1.599789     -2.074088     -2.185415
  H      -0.898703     -1.858014     -2.800738
17
Coordinates from ORCA-job opt E -20.275836105850
  C       2.533584      0.345134     -0.628861
  C       1.343209     -0.413313     -0.172786
  C       0.064999      0.063465     -0.224230
  C      -1.064945     -0.645619      0.184364
  C      -2.401531      0.001235      0.315698
  H       3.057542     -0.204984     -1.413057
  H       2.255234      1.323946     -1.012215
  H       3.241042      0.476247      0.192032
  H       1.523584     -1.401030      0.228404
  H      -0.095223      1.049657     -0.645405
  H      -1.360908     -1.479472     -1.268164
  H      -0.918901     -1.568589      0.731402
  H      -3.201358     -0.709132      0.113228
  H      -2.540956      0.366921      1.336920
  H      -2.497656      0.846335     -0.362642
  O      -1.596361     -2.081110     -2.199313
  H      -0.893927     -1.864827     -2.812777
17
Coordinates from ORCA-job opt E -20.275899077400
  C       2.531933      0.341168     -0.635486
  C       1.343455     -0.413251     -0.168712
  C       0.064539      0.066711     -0.214065
  C      -1.062345     -0.635375      0.205761
  C      -2.404353      0.002195      0.318801
  H       3.050826     -0.213129     -1.420222
  H       2.252668      1.318608     -1.021729
  H       3.244631      0.475304      0.180476
  H       1.523731     -1.399790      0.235168
  H      -0.094145      1.052496     -0.636901
  H      -1.356887     -1.482719     -1.276822
  H      -0.920105     -1.565153      0.741594
  H      -3.197030     -0.712262      0.102590
  H      -2.562224      0.363230      1.339168
  H      -2.495735      0.849329     -0.357606
  O      -1.589293     -2.080633     -2.211130
  H      -0.882240     -1.861865     -2.818287
17
Coordinates from ORCA-job opt E -20.275928614420
  C       2.530221      0.337251     -0.641687
  C       1.343244     -0.413769     -0.166177
  C       0.064004      0.067557     -0.209289
  C      -1.061217     -0.629374      0.219708
  C      -2.407177      0.001208      0.319590
  H       3.046257     -0.221573     -1.425150
  H       2.250082      1.312683     -1.032357
  H       3.246100      0.475714      0.170839
  H       1.523499     -1.398875      0.241094
  H      -0.093482      1.052830     -0.633763
  H      -1.351012     -1.481285     -1.275838
  H      -0.921518     -1.564063      0.747310
  H      -3.194014     -0.715825      0.090837
  H      -2.579724      0.356487      1.339709
  H      -2.494315      0.851448     -0.353417
  O      -1.582786     -2.073226     -2.214097
  H      -0.870733     -1.852325     -2.814713
17
Coordinates from ORCA-job opt E -20.275941464110
  C       2.528960      0.334538     -0.645854
  C       1.342721     -0.414333     -0.165265
  C       0.063465      0.066977     -0.209012
  C      -1.061346     -0.627289      0.225286
  C      -2.409212     -0.000208      0.319221
  H       3.044221     -0.227776     -1.427325
  H       2.248272      1.308157     -1.040613
  H       3.245895      0.476849      0.165110
  H       1.523018     -1.398242      0.244877
  H      -0.093530      1.051731     -0.634823
  H      -1.345323     -1.477912     -1.270141
  H      -0.922595     -1.564305      0.748858
  H      -3.192721     -0.717694      0.080664
  H      -2.590385      0.348692      1.340064
  H      -2.493134      0.853922     -0.349220
  O      -1.578277     -2.064586     -2.211412
  H      -0.862601     -1.843657     -2.807817
17
Coordinates from ORCA-job opt E -20.275946639420
  C       2.528252      0.333316     -0.647775
  C       1.342104     -0.414594     -0.165392
  C       0.062966      0.066335     -0.210495
  C      -1.062034     -0.627140      0.225587
  C      -2.410213     -0.000806      0.318940
  H       3.043730     -0.230821     -1.427764
  H       2.247417      1.305914     -1.044920
  H       3.245074      0.477769      0.162917
  H       1.522444     -1.397846      0.246340
  H      -0.094097      1.050699     -0.637145
  H      -1.341141     -1.475388     -1.265308
  H      -0.923183     -1.564554      0.748361
  H      -3.192637     -0.717128      0.073353
  H      -2.595039      0.341824      1.341213
  H      -2.491895      0.857318     -0.344626
  O      -1.575888     -2.059388     -2.207795
  H      -0.858431     -1.840646     -2.802891
17
Coordinates from ORCA-job opt E -20.275950189710
  C       2.527677      0.332723     -0.648931
  C       1.341394     -0.414585     -0.165834
  C       0.062395      0.066221     -0.211836
  C      -1.062859     -0.626919      0.224853
  C      -2.410799     -0.000445      0.319284
  H       3.043371     -0.232464     -1.427994
  H       2.246896      1.304777     -1.047429
  H       3.244257      0.478294      0.161775
  H       1.521739     -1.397470      0.246795
  H      -0.094876      1.050287     -0.639078
  H      -1.337358     -1.474165     -1.262676
  H      -0.923670     -1.564178      0.747816
  H      -3.192847     -0.714629      0.066200
  H      -2.598264      0.334572      1.343540
  H      -2.490111      0.862467     -0.338308
  O      -1.574070     -2.057227     -2.205253
  H      -0.855445     -1.842393     -2.800326
17
Coordinates from ORCA-job opt E -20.275954472750
  C       2.526791      0.332186     -0.650448
  C       1.340264     -0.414328     -0.166588
  C       0.061467      0.066850     -0.212825
  C      -1.064040     -0.625711      0.224488
  C      -2.411481      0.001171      0.320637
  H       3.042364     -0.233992     -1.428854
  H       2.246215      1.303869     -1.049982
  H       3.243341      0.478485      0.160151
  H       1.520535     -1.396931      0.246753
  H      -0.095989      1.050630     -0.640642
  H      -1.331868     -1.473992     -1.261740
  H      -0.924519     -1.562715      0.747885
  H      -3.193065     -0.709027      0.054800
  H      -2.603426      0.323050      1.348173
  H      -2.486743      0.872106     -0.326726
  O      -1.571355     -2.057255     -2.203491
  H      -0.851062     -1.849533     -2.798993
17
Coordinates from ORCA-job opt E -20.275957647990
  C       2.525861      0.331862     -0.651947
  C       1.339171     -0.413954     -0.167353
  C       0.060568      0.068157     -0.212526
  C      -1.065009     -0.623608      0.225493
  C      -2.412055      0.003563      0.322564
  H       3.040745     -0.234740     -1.430505
  H       2.245542      1.303600     -1.051528
  H       3.242882      0.477989      0.158268
  H       1.519270     -1.396565      0.246030
  H      -0.096768      1.051902     -0.640463
  H      -1.326887     -1.475287     -1.263512
  H      -0.925581     -1.560556      0.749108
  H      -3.193009     -0.702364      0.043340
  H      -2.609251      0.311831      1.353179
  H      -2.483032      0.882516     -0.314306
  O      -1.568558     -2.060046     -2.203775
  H      -0.846459     -1.859437     -2.799468
17
Coordinates from ORCA-job opt E -20.275958922890
  C       2.525303      0.331787     -0.652842
  C       1.338631     -0.413754     -0.167828
  C       0.060138      0.069229     -0.211445
  C      -1.065347     -0.621948      0.227097
  C      -2.412322      0.005253      0.323808
  H       3.039391     -0.234595     -1.432104
  H       2.245132      1.303868     -1.051698
  H       3.242979      0.477163      0.156933
  H       1.518548     -1.396625      0.245007
  H      -0.096819      1.053201     -0.638999
  H      -1.324660     -1.476799     -1.265978
  H      -0.926403     -1.559038      0.750624
  H      -3.192767     -0.698388      0.037172
  H      -2.612968      0.306278      1.355849
  H      -2.480883      0.888298     -0.307605
  O      -1.566932     -2.063213     -2.205056
  H      -0.843592     -1.865852     -2.800337
17
Coordinates from ORCA-job opt E -20.275959210030
  C       2.525137      0.331821     -0.653132
  C       1.338542     -0.413759     -0.168043
  C       0.060084      0.069591     -0.210768
  C      -1.065328     -0.621404      0.227944
  C      -2.412362      0.005777      0.324061
  H       3.038830     -0.234213     -1.432918
  H       2.244993      1.304165     -1.051369
  H       3.243175      0.476640      0.156424
  H       1.518358     -1.396869      0.244267
  H      -0.096569      1.053793     -0.637903
  H      -1.324445     -1.477385     -1.267029
  H      -0.926804     -1.558588      0.751399
  H      -3.192612     -0.697390      0.035632
  H      -2.614157      0.305264      1.356316
  H      -2.480284      0.889623     -0.306286
  O      -1.566479     -2.064698     -2.205606
  H      -0.842651     -1.867502     -2.800389
17
Coordinates from ORCA-job opt E -20.275959283460
  C       2.525103      0.331862     -0.653217
  C       1.338558     -0.413810     -0.168179
  C       0.060107      0.069632     -0.210560
  C      -1.065285     -0.621358      0.228142
  C      -2.412348      0.005858      0.323973
  H       3.038680     -0.233948     -1.433245
  H       2.244951      1.304335     -1.051137
  H       3.243265      0.476417      0.156279
  H       1.518331     -1.397061      0.243819
  H      -0.096386      1.053972     -0.637437
  H      -1.324599     -1.477397     -1.267139
  H      -0.927001     -1.558546      0.751634
  H      -3.192550     -0.697234      0.035205
  H      -2.614471      0.305144      1.356220
  H      -2.480105      0.889786     -0.306271
  O      -1.566393     -2.065183     -2.205482
  H      -0.842431     -1.867605     -2.800007
17
Coordinates from ORCA-job opt E -20.280505306430
  C       2.523971      0.329641     -0.656166
  C       1.337349     -0.416475     -0.171999
  C       0.058848      0.066816     -0.214572
  C      -1.066611     -0.624584      0.223313
  C      -2.413801      0.002378      0.319017
  H       3.037914     -0.235645     -1.436333
  H       2.243832      1.302307     -1.053625
  H       3.241814      0.473825      0.153679
  H       1.517105     -1.399941      0.239494
  H      -0.097623      1.051382     -0.640935
  H      -1.325254     -1.479791     -1.272561
  H      -0.928393     -1.562056      0.746313
  H      -3.193795     -0.700660      0.029553
  H      -2.616346      0.301032      1.351364
  H      -2.481458      0.886664     -0.310736
  O      -1.557142     -2.044018     -2.174534
  H      -0.832981     -1.846011     -2.768673
17
Coordinates from ORCA-job opt E -20.280645959250
  C       2.524640      0.331616     -0.653959
  C       1.337919     -0.413850     -0.168556
  C       0.059540      0.070865     -0.208746
  C      -1.065345     -0.619595      0.229538
  C      -2.412283      0.007296      0.325027
  H       3.037147     -0.233446     -1.435326
  H       2.244699      1.304794     -1.050335
  H       3.243755      0.474816      0.154967
  H       1.517395     -1.397708      0.242146
  H      -0.096693      1.055698     -0.634577
  H      -1.330357     -1.490243     -1.293561
  H      -0.927636     -1.558269      0.750927
  H      -3.192129     -0.695486      0.034155
  H      -2.615579      0.304796      1.357523
  H      -2.479396      0.892285     -0.303830
  O      -1.559889     -2.061465     -2.191725
  H      -0.838360     -1.867238     -2.791068
17
Coordinates from ORCA-job opt E -20.280770955340
  C       2.524483      0.332740     -0.652956
  C       1.338229     -0.410582     -0.162873
  C       0.059881      0.077572     -0.196927
  C      -1.062605     -0.609257      0.245120
  C      -2.410633      0.014366      0.334242
  H       3.033007     -0.232838     -1.436612
  H       2.244590      1.306518     -1.047968
  H       3.247173      0.474768      0.153054
  H       1.517388     -1.394622      0.247408
  H      -0.095963      1.062408     -0.623027
  H      -1.335691     -1.505311     -1.325227
  H      -0.926598     -1.550863      0.760797
  H      -3.187569     -0.689902      0.038297
  H      -2.620316      0.309804      1.366009
  H      -2.476356      0.900121     -0.293821
  O      -1.559900     -2.085102     -2.219236
  H      -0.841694     -1.894956     -2.823684
17
Coordinates from ORCA-job opt E -20.280806341360
  C       2.523678      0.331467     -0.654978
  C       1.338196     -0.409835     -0.160152
  C       0.059703      0.080441     -0.190348
  C      -1.061107     -0.603020      0.256674
  C      -2.411158      0.016622      0.337965
  H       3.029405     -0.235645     -1.439375
  H       2.243487      1.304939     -1.050583
  H       3.249016      0.474154      0.148581
  H       1.517301     -1.393428      0.251094
  H      -0.095610      1.065071     -0.617257
  H      -1.335608     -1.510238     -1.336825
  H      -0.926653     -1.547396      0.767386
  H      -3.184439     -0.689579      0.036714
  H      -2.628476      0.310355      1.368667
  H      -2.475605      0.902846     -0.289599
  O      -1.556678     -2.091158     -2.230883
  H      -0.838023     -1.900730     -2.834484
17
Coordinates from ORCA-job opt E -20.280837008780
  C       2.521867      0.328202     -0.659789
  C       1.337789     -0.409839     -0.157166
  C       0.059111      0.082739     -0.183270
  C      -1.059570     -0.595581      0.272322
  C      -2.412942      0.017646      0.341063
  H       3.024106     -0.242319     -1.444008
  H       2.240962      1.300396     -1.058079
  H       3.250674      0.473557      0.140209
  H       1.516921     -1.392312      0.256589
  H      -0.095241      1.066893     -0.611720
  H      -1.332394     -1.512479     -1.344350
  H      -0.927394     -1.544059      0.775753
  H      -3.180050     -0.691358      0.030460
  H      -2.642925      0.307803      1.370079
  H      -2.475058      0.905168     -0.284883
  O      -1.550027     -2.091165     -2.240697
  H      -0.828402     -1.898427     -2.839914
17
Coordinates from ORCA-job opt E -20.280852532060
  C       2.519983      0.324791     -0.664687
  C       1.337109     -0.410495     -0.155513
  C       0.058337      0.083051     -0.180107
  C      -1.059026     -0.591294      0.282804
  C      -2.414915      0.016983      0.341971
  H       3.020231     -0.249367     -1.447550
  H       2.238328      1.295248     -1.066691
  H       3.250951      0.473724      0.132724
  H       1.516360     -1.391715      0.261097
  H      -0.095286      1.066634     -0.610134
  H      -1.327516     -1.510736     -1.343430
  H      -0.928392     -1.542665      0.781036
  H      -3.176874     -0.693563      0.022233
  H      -2.655461      0.302473      1.369907
  H      -2.474627      0.906699     -0.281054
  O      -1.543601     -2.084950     -2.243022
  H      -0.818172     -1.889952     -2.836986
17
Coordinates from ORCA-job opt E -20.280859993910
  C       2.518514      0.322229     -0.668344
  C       1.336338     -0.411256     -0.155055
  C       0.057546      0.082193     -0.180189
  C      -1.059333     -0.589923      0.287307
  C      -2.416485      0.015816      0.341701
  H       3.018239     -0.254869     -1.449376
  H       2.236312      1.291061     -1.073855
  H       3.250234      0.474464      0.127777
  H       1.515763     -1.391411      0.263991
  H      -0.095832      1.065185     -0.611614
  H      -1.322569     -1.507412     -1.338203
  H      -0.929257     -1.542529      0.783242
  H      -3.175346     -0.694540      0.014210
  H      -2.663712      0.295893      1.369535
  H      -2.474042      0.908473     -0.277275
  O      -1.538793     -2.077060     -2.240659
  H      -0.810148     -1.881449     -2.830591
17
Coordinates from ORCA-job opt E -20.280863517970
  C       2.517595      0.320859     -0.670363
  C       1.335636     -0.411703     -0.155220
  C       0.056860      0.081336     -0.181480
  C      -1.060005     -0.589933      0.287980
  C      -2.417392      0.015253      0.341505
  H       3.017528     -0.258034     -1.449917
  H       2.235138      1.288615     -1.078236
  H       3.249258      0.475253      0.125403
  H       1.515221     -1.391163      0.265412
  H      -0.096663      1.063819     -0.613978
  H      -1.318684     -1.504996     -1.333697
  H      -0.929806     -1.542544      0.783816
  H      -3.175016     -0.693611      0.007894
  H      -2.667910      0.289762      1.370010
  H      -2.473171      0.911109     -0.272969
  O      -1.535897     -2.071667     -2.237789
  H      -0.805262     -1.877488     -2.825773
17
Coordinates from ORCA-job opt E -20.280866688020
  C       2.516639      0.319781     -0.672108
  C       1.334748     -0.411932     -0.155517
  C       0.056014      0.080827     -0.182778
  C      -1.060906     -0.589791      0.288084
  C      -2.418158      0.015481      0.342020
  H       3.016819     -0.260717     -1.450292
  H       2.234037      1.286598     -1.082084
  H       3.248136      0.476040      0.123450
  H       1.514498     -1.390736      0.266593
  H      -0.097812      1.062729     -0.616457
  H      -1.314347     -1.503565     -1.330721
  H      -0.930363     -1.541974      0.784623
  H      -3.174907     -0.690696      0.000637
  H      -2.671829      0.282160      1.371750
  H      -2.471674      0.915795     -0.266071
  O      -1.533008     -2.067928     -2.235907
  H      -0.800460     -1.877207     -2.822624
17
Coordinates from ORCA-job opt E -20.280870821520
  C       2.515108      0.318432     -0.674567
  C       1.333265     -0.411995     -0.155927
  C       0.054638      0.080849     -0.183789
  C      -1.062280     -0.588689      0.288980
  C      -2.419178      0.016935      0.343883
  H       3.015280     -0.264134     -1.451193
  H       2.232396      1.284137     -1.087057
  H       3.246623      0.476860      0.120551
  H       1.513205     -1.389947      0.268093
  H      -0.099586      1.061927     -0.619160
  H      -1.307605     -1.503159     -1.329473
  H      -0.931286     -1.540119      0.786856
  H      -3.174577     -0.684245     -0.010900
  H      -2.678144      0.269835      1.375655
  H      -2.468853      0.924869     -0.253041
  O      -1.528536     -2.065192     -2.235557
  H      -0.793040     -1.881500     -2.820755
17
Coordinates from ORCA-job opt E -20.280873983420
  C       2.513585      0.317410     -0.676770
  C       1.331798     -0.411858     -0.156307
  C       0.053335      0.081693     -0.183490
  C      -1.063461     -0.586662      0.290986
  C      -2.420030      0.019272      0.346529
  H       3.013201     -0.266566     -1.452695
  H       2.230868      1.282505     -1.090678
  H       3.245549      0.476991      0.117710
  H       1.511799     -1.389265      0.268939
  H      -0.101013      1.062200     -0.620091
  H      -1.301292     -1.504428     -1.331530
  H      -0.932318     -1.537475      0.790065
  H      -3.173944     -0.676699     -0.021837
  H      -2.684649      0.258190      1.380076
  H      -2.465898      0.934648     -0.239168
  O      -1.524293     -2.065508     -2.237697
  H      -0.785807     -1.889587     -2.821444
17
Coordinates from ORCA-job opt E -20.280875255640
  C       2.512820      0.317131     -0.677738
  C       1.331089     -0.411723     -0.156593
  C       0.052772      0.082680     -0.182334
  C      -1.063885     -0.585027      0.292832
  C      -2.420355      0.020981      0.348226
  H       3.011689     -0.266913     -1.454104
  H       2.230180      1.282384     -1.091342
  H       3.245387      0.476363      0.116259
  H       1.510980     -1.389194      0.268548
  H      -0.101315      1.063204     -0.618993
  H      -1.298407     -1.506030     -1.334648
  H      -0.933013     -1.535693      0.792314
  H      -3.173392     -0.672475     -0.026869
  H      -2.688113      0.253119      1.382444
  H      -2.464403      0.939793     -0.232176
  O      -1.522421     -2.067682     -2.240211
  H      -0.782186     -1.896052     -2.823015
17
Coordinates from ORCA-job opt E -20.280875554970
  C       2.512677      0.317237     -0.677857
  C       1.330978     -0.411709     -0.156816
  C       0.052740      0.083163     -0.181550
  C      -1.063870     -0.584435      0.293573
  C      -2.420365      0.021553      0.348613
  H       3.011112     -0.266314     -1.454883
  H       2.230107      1.282865     -1.090643
  H       3.245600      0.475716      0.115961
  H       1.510731     -1.389479      0.267696
  H      -0.101027      1.063959     -0.617714
  H      -1.297938     -1.506643     -1.336176
  H      -0.933340     -1.535190      0.792988
  H      -3.173156     -0.671568     -0.027663
  H      -2.688907      0.252653      1.382846
  H      -2.464122      0.940812     -0.231097
  O      -1.522331     -2.069097     -2.241148
  H      -0.781460     -1.898659     -2.823531
17
Coordinates from ORCA-job opt E -20.280875643630
  C       2.512683      0.317371     -0.677817
  C       1.330994     -0.411743     -0.157018
  C       0.052797      0.083334     -0.181235
  C      -1.063823     -0.584314      0.293696
  C      -2.420333      0.021686      0.348560
  H       3.010935     -0.265755     -1.455283
  H       2.230156      1.283272     -1.089996
  H       3.245761      0.475308      0.115967
  H       1.510647     -1.389765      0.266959
  H      -0.100746      1.064371     -0.616937
  H      -1.297848     -1.506599     -1.336577
  H      -0.933542     -1.535160      0.792997
  H      -3.173064     -0.671488     -0.027751
  H      -2.689026      0.252852      1.382736
  H      -2.464091      0.940871     -0.231266
  O      -1.522621     -2.069602     -2.241112
  H      -0.781449     -1.899774     -2.823324
17
Coordinates from ORCA-job opt E -20.284975978970
  C       2.511605      0.315107     -0.680863
  C       1.329823     -0.414454     -0.160901
  C       0.051578      0.080492     -0.185252
  C      -1.065126     -0.587567      0.288902
  C      -2.421723      0.018245      0.343672
  H       3.010186     -0.267496     -1.458512
  H       2.229108      1.281224     -1.092558
  H       3.244397      0.472650      0.113263
  H       1.509445     -1.392710      0.262549
  H      -0.101929      1.061773     -0.620416
  H      -1.298497     -1.508900     -1.342004
  H      -0.934906     -1.538699      0.787675
  H      -3.174249     -0.674788     -0.033310
  H      -2.690791      0.248759      1.377896
  H      -2.465390      0.937774     -0.235617
  O      -1.513726     -2.048405     -2.210033
  H      -0.772376     -1.878143     -2.791894
17
Coordinates from ORCA-job opt E -20.285030897570
  C       2.512499      0.316225     -0.679676
  C       1.330674     -0.413260     -0.159352
  C       0.052333      0.081934     -0.183315
  C      -1.063958     -0.585040      0.292629
  C      -2.420990      0.019757      0.345683
  H       3.011182     -0.266497     -1.457245
  H       2.229877      1.282204     -1.091634
  H       3.245335      0.474180      0.114352
  H       1.510412     -1.391192      0.264825
  H      -0.101077      1.063162     -0.618635
  H      -1.301038     -1.514162     -1.349467
  H      -0.933874     -1.536780      0.791042
  H      -3.173608     -0.673117     -0.033478
  H      -2.691546      0.248875      1.379798
  H      -2.464053      0.940190     -0.232231
  O      -1.517002     -2.054033     -2.217086
  H      -0.777737     -1.887581     -2.803611
17
Coordinates from ORCA-job opt E -20.285141432660
  C       2.514411      0.319271     -0.676442
  C       1.333146     -0.408925     -0.152639
  C       0.054609      0.087617     -0.174252
  C      -1.059253     -0.574766      0.308252
  C      -2.417940      0.025206      0.353080
  H       3.012091     -0.264655     -1.453829
  H       2.231080      1.284490     -1.089754
  H       3.248456      0.479058      0.116134
  H       1.513255     -1.385876      0.273563
  H      -0.098453      1.068271     -0.611021
  H      -1.309015     -1.533466     -1.378017
  H      -0.930081     -1.528192      0.803352
  H      -3.167507     -0.666494     -0.035437
  H      -2.697059      0.247784      1.386342
  H      -2.458915      0.949000     -0.219664
  O      -1.526898     -2.074393     -2.244498
  H      -0.794499     -1.919068     -2.842570
17
Coordinates from ORCA-job opt E -20.285162579640
  C       2.514352      0.319308     -0.676725
  C       1.333717     -0.407443     -0.149649
  C       0.055114      0.090030     -0.169614
  C      -1.057768     -0.570467      0.315603
  C      -2.417421      0.027245      0.356034
  H       3.010587     -0.266016     -1.453976
  H       2.230653      1.283946     -1.091176
  H       3.249780      0.480241      0.114371
  H       1.513916     -1.384033      0.277302
  H      -0.097737      1.070223     -0.607622
  H      -1.310724     -1.540150     -1.388759
  H      -0.929265     -1.524952      0.808339
  H      -3.163821     -0.664432     -0.037510
  H      -2.702020      0.246412      1.388605
  H      -2.457506      0.952465     -0.214556
  O      -1.528440     -2.081168     -2.255225
  H      -0.795989     -1.926346     -2.852842
17
Coordinates from ORCA-job opt E -20.285179191890
  C       2.513342      0.318045     -0.678788
  C       1.333692     -0.406204     -0.146358
  C       0.055150      0.092677     -0.163893
  C      -1.056720     -0.565629      0.324732
  C      -2.417647      0.029356      0.359402
  H       3.007149     -0.269864     -1.455624
  H       2.229224      1.281686     -1.095294
  H       3.251051      0.480812      0.109858
  H       1.513926     -1.382193      0.281903
  H      -0.097396      1.072167     -0.603670
  H      -1.310744     -1.545955     -1.399312
  H      -0.929232     -1.521792      0.814001
  H      -3.159014     -0.663035     -0.041203
  H      -2.709996      0.243985      1.390772
  H      -2.456479      0.956281     -0.208514
  O      -1.527164     -2.086702     -2.266272
  H      -0.791713     -1.928771     -2.859140
17
Coordinates from ORCA-job opt E -20.285184175950
  C       2.512148      0.316474     -0.680983
  C       1.333006     -0.406152     -0.145326
  C       0.054649      0.093555     -0.161552
  C      -1.056860     -0.563712      0.328969
  C      -2.418410      0.030039      0.360848
  H       3.004522     -0.273241     -1.457365
  H       2.227898      1.279436     -1.098961
  H       3.251195      0.480440      0.106185
  H       1.513196     -1.381669      0.284011
  H      -0.097775      1.072695     -0.602121
  H      -1.308882     -1.546531     -1.401897
  H      -0.929916     -1.520861      0.816374
  H      -3.156813     -0.663163     -0.043744
  H      -2.714885      0.242254      1.391457
  H      -2.456461      0.957794     -0.205689
  O      -1.523764     -2.086859     -2.269500
  H      -0.785420     -1.925634     -2.858108
17
Coordinates from ORCA-job opt E -20.285186749400
  C       2.510896      0.314839     -0.683101
  C       1.332012     -0.406613     -0.145296
  C       0.053876      0.093663     -0.160733
  C      -1.057461     -0.562901      0.331234
  C      -2.419360      0.030176      0.361595
  H       3.002340     -0.276241     -1.459042
  H       2.226630      1.277292     -1.102222
  H       3.250795      0.479693      0.103089
  H       1.512132     -1.381743      0.284946
  H      -0.098535      1.072641     -0.601617
  H      -1.306065     -1.544925     -1.401214
  H      -0.930813     -1.520627      0.817582
  H      -3.155814     -0.663640     -0.045726
  H      -2.718361      0.240762      1.391710
  H      -2.456801      0.958490     -0.203991
  O      -1.519241     -2.084801     -2.269520
  H      -0.778803     -1.921198     -2.855096
17
Coordinates from ORCA-job opt E -20.285189477210
  C       2.509070      0.312516     -0.686004
  C       1.330434     -0.407515     -0.145721
  C       0.052593      0.093454     -0.160277
  C      -1.058518     -0.562087      0.333750
  C      -2.420797      0.030223      0.362499
  H       2.999447     -0.280205     -1.461374
  H       2.224808      1.274355     -1.106515
  H       3.249918      0.478449      0.099068
  H       1.510454     -1.382186      0.285594
  H      -0.099857      1.072284     -0.601430
  H      -1.301394     -1.541745     -1.398974
  H      -0.932139     -1.520337      0.819125
  H      -3.155078     -0.664065     -0.048257
  H      -2.722670      0.238629      1.392100
  H      -2.457409      0.959354     -0.201726
  O      -1.511944     -2.080986     -2.268313
  H      -0.769492     -1.915274     -2.850948
17
Coordinates from ORCA-job opt E -20.285192248410
  C       2.506749      0.309680     -0.689489
  C       1.328397     -0.408706     -0.146367
  C       0.050869      0.093086     -0.159910
  C      -1.059899     -0.560955      0.336950
  C      -2.422605      0.030417      0.363842
  H       2.995912     -0.284874     -1.464224
  H       2.222457      1.270821     -1.111567
  H       3.248653      0.476862      0.094323
  H       1.508317     -1.382892      0.286075
  H      -0.101621      1.071710     -0.601485
  H      -1.295125     -1.537810     -1.396329
  H      -0.933761     -1.519617      0.821560
  H      -3.154618     -0.663853     -0.051265
  H      -2.727834      0.235782      1.392958
  H      -2.458151      0.960820     -0.198317
  O      -1.502194     -2.076309     -2.266965
  H      -0.758120     -1.909297     -2.847193
17
Coordinates from ORCA-job opt E -20.285194445160
  C       2.504619      0.307249     -0.692454
  C       1.326551     -0.409733     -0.146860
  C       0.049235      0.092771     -0.159537
  C      -1.061149     -0.559643      0.340204
  C      -2.424186      0.030909      0.365486
  H       2.992766     -0.288807     -1.466670
  H       2.220233      1.267785     -1.115856
  H       3.247393      0.475536      0.090300
  H       1.506428     -1.383526      0.286468
  H      -0.103235      1.071102     -0.601791
  H      -1.289245     -1.534943     -1.395044
  H      -0.935155     -1.518425      0.824625
  H      -3.154613     -0.662580     -0.053835
  H      -2.732364      0.232930      1.394335
  H      -2.458710      0.962859     -0.194188
  O      -1.493031     -2.072856     -2.266815
  H      -0.748108     -1.905764     -2.845772
17
Coordinates from ORCA-job opt E -20.285195974940
  C       2.503114      0.305741     -0.694290
  C       1.325278     -0.410354     -0.147054
  C       0.048041      0.092570     -0.159245
  C      -1.062035     -0.558546      0.342668
  C      -2.425172      0.031617      0.367092
  H       2.990681     -0.291244     -1.468148
  H       2.218597      1.265851     -1.118593
  H       3.246387      0.474829      0.087822
  H       1.505193     -1.383862      0.286890
  H      -0.104346      1.070533     -0.602381
  H      -1.285131     -1.533900     -1.395591
  H      -0.936056     -1.517097      0.827582
  H      -3.155084     -0.660506     -0.055374
  H      -2.735171      0.230676      1.395982
  H      -2.458950      0.965076     -0.190157
  O      -1.486602     -2.071521     -2.268080
  H      -0.741316     -1.904999     -2.846523
17
Coordinates from ORCA-job opt E -20.285197292490
  C       2.501851      0.304671     -0.695599
  C       1.324223     -0.410789     -0.147107
  C       0.046996      0.092356     -0.159107
  C      -1.062845     -0.557724      0.344485
  C      -2.425857      0.032499      0.368756
  H       2.989112     -0.293032     -1.469088
  H       2.217182      1.264386     -1.120710
  H       3.245404      0.474504      0.086092
  H       1.504244     -1.383977      0.287506
  H      -0.105286      1.069837     -0.603374
  H      -1.281826     -1.533865     -1.397245
  H      -0.936781     -1.515727      0.830484
  H      -3.155974     -0.657795     -0.056309
  H      -2.736891      0.228613      1.397935
  H      -2.459016      0.967558     -0.185891
  O      -1.481459     -2.071352     -2.270239
  H      -0.735651     -1.905298     -2.847989
17
Coordinates from ORCA-job opt E -20.285198656210
  C       2.500387      0.303532     -0.696995
  C       1.322987     -0.411256     -0.147150
  C       0.045749      0.092006     -0.159160
  C      -1.063901     -0.557127      0.345954
  C      -2.426553      0.033630      0.370753
  H       2.987446     -0.295045     -1.469931
  H       2.215541      1.262725     -1.123175
  H       3.244158      0.474338      0.084281
  H       1.503188     -1.383940      0.288515
  H      -0.106447      1.068820     -0.604943
  H      -1.278174     -1.534154     -1.399589
  H      -0.937671     -1.514236      0.833676
  H      -3.157310     -0.654276     -0.057094
  H      -2.738225      0.226184      1.400447
  H      -2.459016      0.970656     -0.180632
  O      -1.475847     -2.071550     -2.273084
  H      -0.728884     -1.905444     -2.849276
17
Coordinates from ORCA-job opt E -20.285199615800
  C       2.499069      0.302502     -0.698261
  C       1.321851     -0.411669     -0.147210
  C       0.044615      0.091621     -0.159366
  C      -1.064959     -0.556963      0.346649
  C      -2.427160      0.034613      0.372445
  H       2.985986     -0.296987     -1.470582
  H       2.214087      1.261160     -1.125548
  H       3.243025      0.474281      0.082629
  H       1.502233     -1.383780      0.289658
  H      -0.107606      1.067820     -0.606479
  H      -1.274997     -1.534267     -1.401455
  H      -0.938572     -1.513196      0.836020
  H      -3.158496     -0.651304     -0.057694
  H      -2.739059      0.224063      1.402648
  H      -2.458984      0.973327     -0.176080
  O      -1.471061     -2.071592     -2.275358
  H      -0.722544     -1.904764     -2.849417
17
Coordinates from ORCA-job opt E -20.285199964440
  C       2.498485      0.302013     -0.698863
  C       1.321328     -0.411840     -0.147249
  C       0.044113      0.091437     -0.159510
  C      -1.065497     -0.557129      0.346546
  C      -2.427444      0.035008      0.373097
  H       2.985298     -0.297994     -1.470854
  H       2.213469      1.260398     -1.126727
  H       3.242569      0.474275      0.081797
  H       1.501783     -1.383631      0.290301
  H      -0.108233      1.067395     -0.607089
  H      -1.273607     -1.534077     -1.401934
  H      -0.939068     -1.513005      0.836570
  H      -3.158861     -0.650291     -0.057980
  H      -2.739301      0.223196      1.403510
  H      -2.458935      0.974361     -0.174309
  O      -1.469075     -2.071375     -2.275986
  H      -0.719597     -1.903877     -2.848722
17
Coordinates from ORCA-job opt E -20.288042229780
  C       2.497520      0.299758     -0.701968
  C       1.320256     -0.414553     -0.151174
  C       0.042990      0.088595     -0.163558
  C      -1.066718     -0.560395      0.341740
  C      -2.428737      0.031580      0.368193
  H       2.984654     -0.299733     -1.474157
  H       2.212543      1.258369     -1.129353
  H       3.241326      0.471632      0.079043
  H       1.500670     -1.386586      0.285853
  H      -0.109311      1.064804     -0.610603
  H      -1.274141     -1.536316     -1.407395
  H      -0.940349     -1.516551      0.831233
  H      -3.159937     -0.653540     -0.063539
  H      -2.740958      0.219116      1.398614
  H      -2.460148      0.971257     -0.178660
  O      -1.460942     -2.050247     -2.244641
  H      -0.711291     -1.882325     -2.817027
17
Coordinates from ORCA-job opt E -20.288078855090
  C       2.498252      0.300755     -0.700810
  C       1.320920     -0.413409     -0.149704
  C       0.043659      0.089952     -0.161798
  C      -1.065806     -0.558336      0.344644
  C      -2.428113      0.032899      0.369978
  H       2.985400     -0.298915     -1.472914
  H       2.213233      1.259257     -1.128429
  H       3.242127      0.472928      0.080080
  H       1.501391     -1.385172      0.287922
  H      -0.108640      1.066133     -0.608911
  H      -1.276178     -1.540741     -1.413736
  H      -0.939501     -1.514914      0.833858
  H      -3.159238     -0.652241     -0.063340
  H      -2.741334      0.219419      1.400236
  H      -2.459158      0.973143     -0.175917
  O      -1.463591     -2.054988     -2.250651
  H      -0.715994     -1.890907     -2.827909
17
Coordinates from ORCA-job opt E -20.288144030600
  C       2.499954      0.303585     -0.697431
  C       1.322852     -0.409447     -0.144034
  C       0.045720      0.094891     -0.154624
  C      -1.062382     -0.550708      0.355635
  C      -2.425711      0.037395      0.376099
  H       2.986258     -0.297096     -1.469335
  H       2.214632      1.261580     -1.126013
  H       3.244696      0.476882      0.082396
  H       1.503459     -1.380498      0.295080
  H      -0.106607      1.070719     -0.602507
  H      -1.282454     -1.556323     -1.436841
  H      -0.936463     -1.508319      0.842855
  H      -3.154282     -0.647252     -0.063272
  H      -2.744213      0.219501      1.405458
  H      -2.455729      0.979599     -0.166463
  O      -1.471592     -2.071517     -2.272785
  H      -0.730709     -1.918128     -2.861618
17
Coordinates from ORCA-job opt E -20.288157897480
  C       2.500090      0.304012     -0.697019
  C       1.323367     -0.408012     -0.141591
  C       0.046276      0.096946     -0.151146
  C      -1.061210     -0.547520      0.360715
  C      -2.425095      0.039174      0.378594
  H       2.985400     -0.297563     -1.468841
  H       2.214570      1.261654     -1.126277
  H       3.245723      0.477944      0.081836
  H       1.504007     -1.378849      0.297969
  H      -0.106022      1.072457     -0.599798
  H      -1.284234     -1.562363     -1.446233
  H      -0.935603     -1.505661      0.846643
  H      -3.151371     -0.645385     -0.063942
  H      -2.746957      0.218980      1.407347
  H      -2.454719      0.982252     -0.162531
  O      -1.473589     -2.077780     -2.281990
  H      -0.733205     -1.925423     -2.871137
17
Coordinates from ORCA-job opt E -20.288171248900
  C       2.499561      0.303683     -0.697690
  C       1.323584     -0.406424     -0.138408
  C       0.046603      0.099601     -0.146150
  C      -1.060043     -0.543250      0.368145
  C      -2.424752      0.041512      0.382030
  H       2.982993     -0.299705     -1.469258
  H       2.213731      1.260629     -1.128313
  H       3.246877      0.478788      0.079322
  H       1.504267     -1.376853      0.302008
  H      -0.105586      1.074518     -0.596196
  H      -1.285488     -1.569683     -1.458239
  H      -0.935042     -1.502303      0.851978
  H      -3.146952     -0.643284     -0.065732
  H      -2.752189      0.217713      1.409653
  H      -2.453681      0.985882     -0.156907
  O      -1.474454     -2.085175     -2.294038
  H      -0.732001     -1.930785     -2.879609
17
Coordinates from ORCA-job opt E -20.288174293010
  C       2.498818      0.302852     -0.698866
  C       1.323200     -0.406227     -0.137570
  C       0.046337      0.100325     -0.144449
  C      -1.060028     -0.541845      0.371075
  C      -2.425061      0.042249      0.383311
  H       2.981339     -0.301618     -1.470160
  H       2.212875      1.259372     -1.130359
  H       3.246968      0.478659      0.077196
  H       1.503904     -1.376335      0.303534
  H      -0.105777      1.074957     -0.595119
  H      -1.284749     -1.571205     -1.461466
  H      -0.935343     -1.501340      0.854067
  H      -3.145322     -0.642872     -0.067024
  H      -2.755030      0.216801      1.410348
  H      -2.453553      0.987199     -0.154586
  O      -1.472944     -2.086520     -2.297548
  H      -0.728207     -1.929588     -2.879784
17
Coordinates from ORCA-job opt E -20.288175324530
  C       2.498093      0.301986     -0.699988
  C       1.322633     -0.406519     -0.137627
  C       0.045880      0.100306     -0.144104
  C      -1.060379     -0.541489      0.372207
  C      -2.425530      0.042390      0.383789
  H       2.980190     -0.303152     -1.471029
  H       2.212118      1.258229     -1.132064
  H       3.246643      0.478254      0.075586
  H       1.503346     -1.376380      0.304013
  H      -0.106209      1.074813     -0.595025
  H      -1.283262     -1.570532     -1.461367
  H      -0.935839     -1.501138      0.854955
  H      -3.144872     -0.642907     -0.067936
  H      -2.756665      0.216062      1.410542
  H      -2.453709      0.987661     -0.153511
  O      -1.470585     -2.085607     -2.297793
  H      -0.724426     -1.927112     -2.878048
