2
Coordinates from ORCA-job opt E -74.904785008156
  O       0.498021      0.000000      0.000000
  H      -0.498021      0.000000      0.000000
2
Coordinates from ORCA-job opt E -74.904862115427
  O       0.503758      0.000000      0.000000
  H      -0.503758      0.000000      0.000000
2
Coordinates from ORCA-job opt E -74.904868268001
  O       0.502553      0.000000      0.000000
  H      -0.502553      0.000000      0.000000
2
Coordinates from ORCA-job opt E -74.904868273127
  O       0.502519      0.000000      0.000000
  H      -0.502519      0.000000      0.000000
