17
Coordinates from ORCA-job optts E -268.750132237467
  C           2.57648343001821      0.38878961570501     -0.56631239519365
  C           1.33928118170985     -0.43555076203661     -0.22690811861193
  C           0.06574840048441      0.02419262742934     -0.37321828865204
  C          -1.14096973682488     -0.78842343022602     -0.07921006215325
  C          -2.40380286522421     -0.00308154858049      0.33192134915837
  H           3.17524595033765     -0.10792627150055     -1.32604041284512
  H           2.29301652820246      1.36748281581138     -0.93640497447083
  H           3.20397863778462      0.52012311737256      0.31200110878108
  H           1.50703138678147     -1.43249455114854      0.15570864550011
  H          -0.09805633195453      1.02005375337894     -0.75892268586079
  H          -1.50329818431847     -1.38555855965158     -1.19858236559066
  H          -0.93738577552814     -1.64200824902376      0.55786256441643
  H          -3.26517879401557     -0.66102091048556      0.38404048435625
  H          -2.26366337376384      0.45774852739743      1.30577397880979
  H          -2.61192933236565      0.78070577065137     -0.38855637678404
  O          -1.70805544841470     -1.98831751262647     -2.23974629202854
  H          -0.78101867290868     -2.00985043246644     -2.59080915883117
