17
Coordinates from ORCA-job optts E -268.740893370683
  C       2.539741      0.364901     -0.584427
  C       1.340107     -0.420166     -0.199171
  C       0.069913      0.022748     -0.313164
  C      -1.087796     -0.738079      0.034749
  C      -2.383178     -0.022889      0.289102
  H       3.109133     -0.168751     -1.346941
  H       2.264967      1.343492     -0.970259
  H       3.200435      0.495198      0.273700
  H       1.524090     -1.408053      0.201803
  H      -0.101618      1.006754     -0.733621
  H      -1.370720     -1.404241     -1.109172
  H      -0.909853     -1.599604      0.672277
  H      -3.220745     -0.714430      0.245599
  H      -2.370891      0.429348      1.283621
  H      -2.542522      0.767694     -0.440636
  O      -1.653655     -2.046190     -2.163826
  H      -0.959981     -1.802868     -2.777037
17
Coordinates from ORCA-job optts E -268.747440151444
  C       2.570938      0.372656     -0.582188
  C       1.356522     -0.423015     -0.192092
  C       0.079315      0.016059     -0.322917
  C      -1.094874     -0.759142      0.020976
  C      -2.401512     -0.028148      0.282769
  H       3.151123     -0.161155     -1.333579
  H       2.294967      1.343039     -0.981010
  H       3.223308      0.521177      0.276851
  H       1.538746     -1.405449      0.221015
  H      -0.091110      0.995453     -0.748916
  H      -1.382733     -1.441170     -1.110690
  H      -0.915139     -1.608748      0.670887
  H      -3.242599     -0.714020      0.247770
  H      -2.385589      0.432580      1.269735
  H      -2.561386      0.755831     -0.450722
  O      -1.659014     -2.078453     -2.123610
  H      -1.033534     -1.712633     -2.781682
17
Coordinates from ORCA-job optts E -268.748797256968
  C       2.581491      0.376538     -0.586720
  C       1.357028     -0.424541     -0.200189
  C       0.077731      0.018552     -0.328001
  C      -1.107617     -0.764461      0.004460
  C      -2.415445     -0.024366      0.292424
  H       3.162393     -0.149484     -1.341346
  H       2.308665      1.349051     -0.978030
  H       3.233719      0.519853      0.271771
  H       1.535921     -1.410476      0.204397
  H      -0.089302      1.003037     -0.739582
  H      -1.403549     -1.426433     -1.120413
  H      -0.927579     -1.619200      0.645380
  H      -3.261675     -0.702416      0.255326
  H      -2.389790      0.422900      1.283145
  H      -2.577573      0.769796     -0.427283
  O      -1.686464     -2.047402     -2.129780
  H      -0.950528     -1.786085     -2.742962
17
Coordinates from ORCA-job optts E -268.749942513635
  C       2.585126      0.382001     -0.582075
  C       1.357134     -0.424807     -0.203367
  C       0.077591      0.022146     -0.334450
  C      -1.113578     -0.769648     -0.014519
  C      -2.413599     -0.019410      0.300093
  H       3.169343     -0.137871     -1.338400
  H       2.309840      1.356318     -0.969285
  H       3.232916      0.523796      0.280238
  H       1.534045     -1.413606      0.196316
  H      -0.088160      1.011119     -0.737508
  H      -1.425480     -1.426603     -1.146343
  H      -0.929962     -1.624166      0.627010
  H      -3.265037     -0.691737      0.268091
  H      -2.370174      0.420796      1.293559
  H      -2.578829      0.780428     -0.413627
  O      -1.711898     -2.035662     -2.147901
  H      -0.921849     -1.848232     -2.715236
17
Coordinates from ORCA-job optts E -268.749924471069
  C       2.589853      0.381167     -0.582975
  C       1.361333     -0.423331     -0.195731
  C       0.080230      0.019536     -0.332219
  C      -1.111269     -0.773133     -0.012158
  C      -2.415199     -0.023580      0.293454
  H       3.175239     -0.145564     -1.333679
  H       2.315167      1.352046     -0.980182
  H       3.237658      0.532080      0.277866
  H       1.539147     -1.408967      0.212288
  H      -0.085823      1.006821     -0.740364
  H      -1.413571     -1.442187     -1.135749
  H      -0.928743     -1.622714      0.636485
  H      -3.265464     -0.697447      0.258047
  H      -2.380340      0.419918      1.286080
  H      -2.577942      0.774769     -0.422918
  O      -1.703334     -2.057505     -2.129786
  H      -0.969515     -1.787046     -2.735864
17
Coordinates from ORCA-job optts E -268.752433845431
  C       2.600610      0.387555     -0.572747
  C       1.370595     -0.420051     -0.184451
  C       0.086961      0.019869     -0.334671
  C      -1.105952     -0.780517     -0.021212
  C      -2.409076     -0.024314      0.285704
  H       3.190931     -0.143129     -1.316352
  H       2.323312      1.352967     -0.980021
  H       3.242277      0.550453      0.290293
  H       1.548037     -1.401952      0.232390
  H      -0.079031      1.004702     -0.747220
  H      -1.408894     -1.494008     -1.154744
  H      -0.920032     -1.616472      0.644378
  H      -3.260480     -0.696863      0.250913
  H      -2.372363      0.421652      1.276290
  H      -2.570389      0.771383     -0.433326
  O      -1.713076     -2.102254     -2.108011
  H      -1.076003     -1.724158     -2.764615
17
Coordinates from ORCA-job optts E -268.751494845984
  C       2.596375      0.386707     -0.574612
  C       1.365445     -0.423058     -0.191617
  C       0.083092      0.020053     -0.339489
  C      -1.111940     -0.781575     -0.028358
  C      -2.410131     -0.021540      0.293299
  H       3.187094     -0.139099     -1.321245
  H       2.318176      1.354241     -0.976161
  H       3.237084      0.544896      0.289930
  H       1.541935     -1.407261      0.219990
  H      -0.082663      1.006710     -0.747644
  H      -1.424655     -1.471242     -1.156918
  H      -0.924647     -1.620266      0.633247
  H      -3.263828     -0.691355      0.265335
  H      -2.361550      0.422471      1.284133
  H      -2.575123      0.775480     -0.423424
  O      -1.718307     -2.080450     -2.123510
  H      -1.008931     -1.769848     -2.740357
17
Coordinates from ORCA-job optts E -268.751180642541
  C       2.591379      0.388352     -0.571918
  C       1.358395     -0.427559     -0.203047
  C       0.078446      0.022000     -0.350619
  C      -1.120351     -0.784148     -0.045444
  C      -2.407909     -0.015067      0.306182
  H       3.184898     -0.127192     -1.323346
  H       2.310123      1.359475     -0.962952
  H       3.227393      0.538536      0.297403
  H       1.532202     -1.416031      0.199229
  H      -0.086884      1.011770     -0.751456
  H      -1.456695     -1.446168     -1.175808
  H      -0.928325     -1.624518      0.612760
  H      -3.266056     -0.679597      0.294694
  H      -2.332457      0.426809      1.296132
  H      -2.581825      0.782729     -0.407804
  O      -1.728760     -2.054050     -2.153969
  H      -0.926148     -1.850477     -2.697439
17
Coordinates from ORCA-job optts E -268.751562719445
  C       2.588079      0.389448     -0.568967
  C       1.353456     -0.430248     -0.209982
  C       0.075293      0.023773     -0.358994
  C      -1.125582     -0.785223     -0.057964
  C      -2.405367     -0.010487      0.315948
  H       3.184268     -0.119878     -1.322388
  H       2.304634      1.362153     -0.954356
  H       3.219926      0.535523      0.303964
  H       1.524863     -1.421075      0.187213
  H      -0.089696      1.015123     -0.755794
  H      -1.482529     -1.432001     -1.198086
  H      -0.929781     -1.627620      0.596474
  H      -3.265814     -0.672047      0.319925
  H      -2.308477      0.431852      1.303632
  H      -2.588589      0.785926     -0.397274
  O      -1.730156     -2.036096     -2.177535
  H      -0.877101     -1.904260     -2.663220
17
Coordinates from ORCA-job optts E -268.752565049701
  C       2.592478      0.391877     -0.566477
  C       1.358366     -0.427127     -0.203721
  C       0.078448      0.024459     -0.354704
  C      -1.120905     -0.784909     -0.055577
  C      -2.403530     -0.011981      0.309972
  H       3.188396     -0.120544     -1.318030
  H       2.309599      1.363173     -0.955863
  H       3.224840      0.541672      0.305453
  H       1.530842     -1.416409      0.197151
  H      -0.086327      1.015371     -0.752820
  H      -1.468348     -1.456336     -1.199619
  H      -0.924516     -1.622682      0.604762
  H      -3.263705     -0.674046      0.303115
  H      -2.316905      0.426778      1.300251
  H      -2.581350      0.786900     -0.401816
  O      -1.744363     -2.050882     -2.159792
  H      -0.925593     -1.880451     -2.689688
17
Coordinates from ORCA-job optts E -268.751932379698
  C       2.588945      0.390241     -0.568050
  C       1.354271     -0.429532     -0.208697
  C       0.075511      0.024013     -0.358396
  C      -1.124933     -0.785568     -0.059245
  C      -2.404438     -0.010379      0.314495
  H       3.185102     -0.119553     -1.321183
  H       2.305753      1.362806     -0.954075
  H       3.220732      0.536914      0.304814
  H       1.525798     -1.420243      0.188937
  H      -0.089323      1.015692     -0.754554
  H      -1.479036     -1.440015     -1.200458
  H      -0.928069     -1.626525      0.596720
  H      -3.265283     -0.671501      0.315994
  H      -2.309028      0.430439      1.303064
  H      -2.586403      0.787235     -0.397709
  O      -1.733877     -2.039932     -2.171719
  H      -0.888294     -1.899227     -2.667342
17
Coordinates from ORCA-job optts E -268.751470368641
  C       2.585630      0.388961     -0.569293
  C       1.350298     -0.431585     -0.213749
  C       0.072590      0.024075     -0.361718
  C      -1.128955     -0.785753     -0.063143
  C      -2.405172     -0.008438      0.319025
  H       3.181782     -0.117860     -1.324417
  H       2.302405      1.363109     -0.951277
  H       3.217034      0.531773      0.304475
  H       1.520785     -1.423968      0.180005
  H      -0.092121      1.016833     -0.755133
  H      -1.489209     -1.425242     -1.202952
  H      -0.931342     -1.630091      0.588121
  H      -3.266733     -0.668476      0.328349
  H      -2.301170      0.433837      1.306050
  H      -2.591110      0.788363     -0.393090
  O      -1.723765     -2.029695     -2.184337
  H      -0.853520     -1.920979     -2.644321
17
Coordinates from ORCA-job optts E -268.751136175373
  C       2.582530      0.387913     -0.570380
  C       1.346474     -0.433318     -0.218774
  C       0.069760      0.024550     -0.364658
  C      -1.132913     -0.785531     -0.067290
  C      -2.405845     -0.006402      0.323384
  H       3.178442     -0.115752     -1.327790
  H       2.299492      1.363863     -0.947893
  H       3.213756      0.526380      0.304204
  H       1.515878     -1.427536      0.170681
  H      -0.094630      1.018667     -0.754720
  H      -1.498454     -1.411614     -1.206682
  H      -0.934530     -1.633495      0.578903
  H      -3.268094     -0.665327      0.339778
  H      -2.293707      0.436695      1.309144
  H      -2.595559      0.790054     -0.388152
  O      -1.713748     -2.019418     -2.196940
  H      -0.821425     -1.944866     -2.620216
17
Coordinates from ORCA-job optts E -268.750892816648
  C       2.579786      0.387185     -0.571249
  C       1.342980     -0.434657     -0.223617
  C       0.067188      0.025396     -0.367232
  C      -1.136598     -0.784937     -0.071590
  C      -2.406358     -0.004418      0.327517
  H       3.175322     -0.113239     -1.331089
  H       2.297095      1.365037     -0.944082
  H       3.210970      0.521059      0.304071
  H       1.511319     -1.430758      0.161352
  H      -0.096741      1.021036     -0.753547
  H      -1.506756     -1.398952     -1.211483
  H      -0.938023     -1.636736      0.569395
  H      -3.269206     -0.662310      0.350183
  H      -2.286664      0.438908      1.312276
  H      -2.599685      0.792096     -0.383011
  O      -1.704293     -2.008980     -2.209601
  H      -0.792909     -1.970865     -2.595695
17
Coordinates from ORCA-job optts E -268.750711631569
  C       2.577343      0.386752     -0.571887
  C       1.339806     -0.435699     -0.228240
  C       0.064852      0.026431     -0.369536
  C      -1.139990     -0.784170     -0.076068
  C      -2.406664     -0.002531      0.331368
  H       3.172457     -0.110373     -1.334211
  H       2.295064      1.366531     -0.939958
  H       3.208547      0.515953      0.304112
  H       1.507156     -1.433669      0.152189
  H      -0.098562      1.023686     -0.751864
  H      -1.514268     -1.387027     -1.217166
  H      -0.941718     -1.639949      0.559618
  H      -3.270023     -0.659471      0.359808
  H      -2.279808      0.440678      1.315275
  H      -2.603550      0.794274     -0.377888
  O      -1.695222     -1.998241     -2.222182
  H      -0.767993     -1.998315     -2.570773
17
Coordinates from ORCA-job optts E -268.750570837901
  C       2.575126      0.386524     -0.572310
  C       1.336882     -0.436533     -0.232618
  C       0.062693      0.027545     -0.371655
  C      -1.143168     -0.783308     -0.080709
  C      -2.406810     -0.000745      0.335012
  H       3.169806     -0.107300     -1.337106
  H       2.293284      1.368199     -0.935644
  H       3.206376      0.511079      0.304318
  H       1.503320     -1.436315      0.143326
  H      -0.100183      1.026438     -0.749895
  H      -1.521276     -1.375605     -1.223686
  H      -0.945421     -1.643149      0.549573
  H      -3.270552     -0.656855      0.369188
  H      -2.272917      0.442336      1.318035
  H      -2.607409      0.796347     -0.372914
  O      -1.686075     -1.987261     -2.234814
  H      -0.746248     -2.026534     -2.545505
17
Coordinates from ORCA-job optts E -268.750454921329
  C       2.573028      0.386380     -0.572558
  C       1.334094     -0.437262     -0.236758
  C       0.060620      0.028625     -0.373717
  C      -1.146254     -0.782444     -0.085571
  C      -2.406822      0.000929      0.338554
  H       3.167284     -0.104193     -1.339766
  H       2.291632      1.369887     -0.931269
  H       3.204325      0.506402      0.304658
  H       1.499686     -1.438764      0.134859
  H      -0.101706      1.029133     -0.747893
  H      -1.528142     -1.364456     -1.231102
  H      -0.949146     -1.646417      0.539177
  H      -3.270768     -0.654506      0.379002
  H      -2.265657      0.444262      1.320437
  H      -2.611581      0.798022     -0.368216
  O      -1.676225     -1.976052     -2.247562
  H      -0.726942     -2.054683     -2.519678
17
Coordinates from ORCA-job optts E -268.750359840828
  C       2.570892      0.386163     -0.572637
  C       1.331258     -0.438029     -0.240645
  C       0.058467      0.029518     -0.375932
  C      -1.149457     -0.781707     -0.090871
  C      -2.406666      0.002549      0.342242
  H       3.164767     -0.101283     -1.342123
  H       2.289929      1.371385     -0.926966
  H       3.202182      0.501884      0.305148
  H       1.496046     -1.441102      0.126980
  H      -0.103283      1.031569     -0.746202
  H      -1.535628     -1.353515     -1.240013
  H      -0.953074     -1.649889      0.528182
  H      -3.270537     -0.652399      0.390610
  H      -2.257239      0.447186      1.322302
  H      -2.616652      0.798865     -0.363915
  O      -1.664734     -1.964787     -2.260643
  H      -0.708843     -2.081543     -2.492921
17
Coordinates from ORCA-job optts E -268.750322686185
  C       2.568244      0.385269     -0.572485
  C       1.327741     -0.439246     -0.244053
  C       0.055656      0.029776     -0.379008
  C      -1.153460     -0.781486     -0.097495
  C      -2.406146      0.004304      0.346974
  H       3.161928     -0.099603     -1.343732
  H       2.287717      1.371860     -0.923340
  H       3.199232      0.497488      0.305948
  H       1.491618     -1.443461      0.120763
  H      -0.105426      1.033118     -0.746058
  H      -1.546393     -1.343303     -1.253244
  H      -0.957837     -1.653974      0.515642
  H      -3.269155     -0.650560      0.409153
  H      -2.244654      0.453861      1.322851
  H      -2.625002      0.797117     -0.360502
  O      -1.648733     -1.954262     -2.274536
  H      -0.687903     -2.102035     -2.464280
17
Coordinates from ORCA-job optts E -268.750355793279
  C       2.571268      0.387045     -0.572761
  C       1.331733     -0.437536     -0.241315
  C       0.058915      0.030422     -0.375298
  C      -1.148960     -0.780965     -0.090348
  C      -2.406763      0.002817      0.341677
  H       3.164928     -0.099546     -1.342950
  H       2.290116      1.372624     -0.925955
  H       3.202773      0.501876      0.304984
  H       1.496580     -1.441094      0.124913
  H      -0.102868      1.032831     -0.744590
  H      -1.533492     -1.353652     -1.238976
  H      -0.951870     -1.648972      0.528745
  H      -3.271857     -0.651031      0.382704
  H      -2.260870      0.441827      1.324803
  H      -2.612370      0.803277     -0.361057
  O      -1.667415     -1.964067     -2.260579
  H      -0.712421     -2.090991     -2.491400
17
Coordinates from ORCA-job optts E -268.750248960063
  C       2.573515      0.388388     -0.574130
  C       1.335043     -0.436328     -0.239859
  C       0.061656      0.030823     -0.371924
  C      -1.145197     -0.780445     -0.082960
  C      -2.407906      0.001403      0.336401
  H       3.166912     -0.099439     -1.343752
  H       2.291632      1.373180     -0.928938
  H       3.205812      0.505193      0.302808
  H       1.500941     -1.439484      0.126984
  H      -0.100886      1.032381     -0.743180
  H      -1.520350     -1.360842     -1.222332
  H      -0.947035     -1.644547      0.541311
  H      -3.275495     -0.650275      0.352962
  H      -2.279080      0.426885      1.327854
  H      -2.598008      0.811720     -0.359266
  O      -1.681276     -1.972516     -2.246883
  H      -0.732853     -2.081233     -2.512498
17
Coordinates from ORCA-job optts E -268.750121728104
  C       2.575368      0.389867     -0.575099
  C       1.338008     -0.434976     -0.237736
  C       0.064149      0.030913     -0.369134
  C      -1.141898     -0.780714     -0.077058
  C      -2.408092      0.000279      0.331859
  H       3.169142     -0.099911     -1.343196
  H       2.292530      1.373284     -0.932948
  H       3.207815      0.510032      0.301294
  H       1.505052     -1.437233      0.131009
  H      -0.099204      1.031446     -0.742752
  H      -1.507863     -1.368223     -1.206364
  H      -0.942772     -1.640360      0.553054
  H      -3.278208     -0.648251      0.325170
  H      -2.294743      0.411999      1.331001
  H      -2.583339      0.820360     -0.356090
  O      -1.694603     -1.982510     -2.235484
  H      -0.753916     -2.071137     -2.534928
17
Coordinates from ORCA-job optts E -268.750065805398
  C       2.577143      0.391649     -0.574548
  C       1.340846     -0.433375     -0.234213
  C       0.066667      0.030326     -0.367746
  C      -1.139072     -0.782199     -0.073769
  C      -2.406942     -0.000661      0.328351
  H       3.172610     -0.101330     -1.339272
  H       2.293130      1.372675     -0.938000
  H       3.208374      0.517563      0.301929
  H       1.509081     -1.433824      0.138836
  H      -0.097410      1.029376     -0.744925
  H      -1.496075     -1.377322     -1.191934
  H      -0.938270     -1.636375      0.563305
  H      -3.279336     -0.645764      0.304264
  H      -2.304602      0.400194      1.333031
  H      -2.570907      0.826795     -0.353393
  O      -1.709271     -1.994884     -2.226661
  H      -0.778536     -2.057982     -2.562660
17
Coordinates from ORCA-job optts E -268.750081174478
  C       2.577230      0.391831     -0.572640
  C       1.340759     -0.433158     -0.232594
  C       0.066736      0.029645     -0.369151
  C      -1.139405     -0.783198     -0.075995
  C      -2.405726     -0.000606      0.329480
  H       3.173949     -0.102390     -1.335579
  H       2.293182      1.371945     -0.938511
  H       3.207109      0.519892      0.304487
  H       1.508913     -1.432725      0.142858
  H      -0.097174      1.028135     -0.747887
  H      -1.497211     -1.379554     -1.194259
  H      -0.937672     -1.636652      0.561802
  H      -3.277564     -0.646739      0.314654
  H      -2.297325      0.406241      1.331073
  H      -2.575267      0.822464     -0.356225
  O      -1.711299     -1.996723     -2.229146
  H      -0.781807     -2.053545     -2.569769
17
Coordinates from ORCA-job optts E -268.750111862099
  C       2.576757      0.390761     -0.568070
  C       1.339538     -0.433984     -0.229837
  C       0.066018      0.026917     -0.373646
  C      -1.141052     -0.785752     -0.081021
  C      -2.403922     -0.001516      0.332076
  H       3.175867     -0.105476     -1.327829
  H       2.293245      1.369583     -0.937812
  H       3.203904      0.521809      0.310548
  H       1.507177     -1.431937      0.150179
  H      -0.097369      1.023787     -0.756926
  H      -1.502087     -1.380424     -1.199939
  H      -0.937821     -1.640354      0.554915
  H      -3.271346     -0.653354      0.353231
  H      -2.275168      0.431142      1.320314
  H      -2.595156      0.802865     -0.370079
  O      -1.710002     -1.993426     -2.234528
  H      -0.781155     -2.035775     -2.578979
17
Coordinates from ORCA-job optts E -268.750121234137
  C       2.576598      0.389955     -0.565345
  C       1.339016     -0.434389     -0.227337
  C       0.065787      0.025311     -0.375021
  C      -1.141520     -0.787172     -0.082182
  C      -2.402903     -0.002126      0.333658
  H       3.176718     -0.107461     -1.323540
  H       2.293494      1.368145     -0.937013
  H       3.202607      0.522445      0.313841
  H       1.506435     -1.431338      0.155386
  H      -0.097506      1.021142     -0.761011
  H      -1.505009     -1.381627     -1.203119
  H      -0.937640     -1.642333      0.552625
  H      -3.266120     -0.658140      0.379510
  H      -2.262278      0.449948      1.311537
  H      -2.608613      0.788026     -0.380493
  O      -1.709819     -1.992101     -2.240577
  H      -0.781817     -2.023419     -2.588322
17
Coordinates from ORCA-job optts E -268.750123468933
  C       2.576454      0.389351     -0.565534
  C       1.338885     -0.434957     -0.227387
  C       0.065599      0.024829     -0.374817
  C      -1.141538     -0.787634     -0.081817
  C      -2.403267     -0.002615      0.333227
  H       3.176231     -0.107727     -1.324223
  H       2.293372      1.367824     -0.936524
  H       3.202807      0.521217      0.313521
  H       1.506312     -1.431972      0.155198
  H      -0.097806      1.020747     -0.760583
  H      -1.505023     -1.381273     -1.202429
  H      -0.937836     -1.643112      0.552692
  H      -3.265235     -0.659899      0.384124
  H      -2.261342      0.454506      1.308578
  H      -2.611693      0.783924     -0.384171
  O      -1.708417     -1.989580     -2.240123
  H      -0.780076     -2.018763     -2.587135
17
Coordinates from ORCA-job optts E -268.750124655911
  C       2.576545      0.389434     -0.565921
  C       1.339088     -0.434908     -0.227443
  C       0.065721      0.025055     -0.374065
  C      -1.141299     -0.787506     -0.081037
  C      -2.403420     -0.002524      0.332925
  H       3.175946     -0.107384     -1.325074
  H       2.293355      1.368057     -0.936398
  H       3.203314      0.520929      0.312885
  H       1.506599     -1.432056      0.154729
  H      -0.097781      1.021125     -0.759353
  H      -1.504466     -1.381970     -1.201739
  H      -0.937720     -1.642513      0.554090
  H      -3.265729     -0.659542      0.381229
  H      -2.263279      0.453208      1.309176
  H      -2.610077      0.785089     -0.383778
  O      -1.708787     -1.990091     -2.240128
  H      -0.780583     -2.019540     -2.587500
17
Coordinates from ORCA-job optts E -268.750126044843
  C       2.576509      0.389227     -0.565942
  C       1.339078     -0.435150     -0.227454
  C       0.065683      0.024844     -0.373915
  C      -1.141280     -0.787731     -0.080786
  C      -2.403542     -0.002695      0.332669
  H       3.175710     -0.107366     -1.325401
  H       2.293292      1.368002     -0.936018
  H       3.203482      0.520377      0.312777
  H       1.506605     -1.432350      0.154592
  H      -0.097866      1.020952     -0.759106
  H      -1.504343     -1.382343     -1.201228
  H      -0.937741     -1.642631      0.554532
  H      -3.265380     -0.660179      0.383034
  H      -2.262898      0.455175      1.307851
  H      -2.611259      0.783337     -0.385480
  O      -1.708379     -1.989284     -2.239924
  H      -0.780245     -2.017321     -2.587604
17
Coordinates from ORCA-job optts E -268.750127255451
  C       2.576538      0.389153     -0.565950
  C       1.339134     -0.435213     -0.227331
  C       0.065714      0.024765     -0.373718
  C      -1.141193     -0.787851     -0.080478
  C      -2.403579     -0.002765      0.332525
  H       3.175616     -0.107399     -1.325534
  H       2.293294      1.367958     -0.935913
  H       3.203640      0.520222      0.312685
  H       1.506683     -1.432387      0.154769
  H      -0.097880      1.020860     -0.758911
  H      -1.504151     -1.383030     -1.200834
  H      -0.937625     -1.642462      0.555206
  H      -3.265226     -0.660433      0.383618
  H      -2.262913      0.456049      1.307255
  H      -2.611605      0.782550     -0.386315
  O      -1.708452     -1.989203     -2.240015
  H      -0.780568     -2.015950     -2.588461
17
Coordinates from ORCA-job optts E -268.750128337075
  C       2.576551      0.389091     -0.566033
  C       1.339195     -0.435283     -0.227264
  C       0.065744      0.024665     -0.373573
  C      -1.141114     -0.787967     -0.080181
  C      -2.403635     -0.002846      0.332336
  H       3.175543     -0.107456     -1.325688
  H       2.293253      1.367895     -0.935964
  H       3.203757      0.520168      0.312527
  H       1.506788     -1.432426      0.154901
  H      -0.097898      1.020736     -0.758809
  H      -1.503881     -1.383590     -1.200274
  H      -0.937547     -1.642337      0.555836
  H      -3.265235     -0.660571      0.383501
  H      -2.263199      0.456336      1.306926
  H      -2.611589      0.782193     -0.386829
  O      -1.708478     -1.989027     -2.239830
  H      -0.780827     -2.014716     -2.588984
17
Coordinates from ORCA-job optts E -268.750129388372
  C       2.576547      0.389017     -0.566075
  C       1.339232     -0.435359     -0.227165
  C       0.065757      0.024533     -0.373476
  C      -1.141059     -0.788099     -0.079919
  C      -2.403672     -0.002920      0.332206
  H       3.175482     -0.107554     -1.325761
  H       2.293206      1.367801     -0.936023
  H       3.203826      0.520137      0.312426
  H       1.506864     -1.432454      0.155108
  H      -0.097929      1.020554     -0.758821
  H      -1.503703     -1.384129     -1.199806
  H      -0.937488     -1.642255      0.556386
  H      -3.265168     -0.660745      0.383813
  H      -2.263255      0.456878      1.306507
  H      -2.611779      0.781650     -0.387425
  O      -1.708440     -1.988836     -2.239795
  H      -0.780996     -2.013353     -2.589583
17
Coordinates from ORCA-job optts E -268.750130367622
  C       2.576532      0.388946     -0.566168
  C       1.339258     -0.435420     -0.227084
  C       0.065762      0.024433     -0.373358
  C      -1.141019     -0.788200     -0.079657
  C      -2.403724     -0.002973      0.332091
  H       3.175391     -0.107657     -1.325893
  H       2.293144      1.367710     -0.936135
  H       3.203903      0.520115      0.312260
  H       1.506932     -1.432474      0.155276
  H      -0.097966      1.020409     -0.758800
  H      -1.503532     -1.384620     -1.199366
  H      -0.937451     -1.642153      0.556922
  H      -3.265194     -0.660826      0.383756
  H      -2.263472      0.457104      1.306284
  H      -2.611767      0.781385     -0.387790
  O      -1.708335     -1.988673     -2.239751
  H      -0.781036     -2.012241     -2.589989
17
Coordinates from ORCA-job optts E -268.750131340045
  C       2.576507      0.388857     -0.566211
  C       1.339267     -0.435499     -0.226985
  C       0.065753      0.024288     -0.373311
  C      -1.140996     -0.788334     -0.079447
  C      -2.403756     -0.003042      0.332006
  H       3.175332     -0.107803     -1.325927
  H       2.293083      1.367584     -0.936248
  H       3.203926      0.520112      0.312169
  H       1.506977     -1.432491      0.155525
  H      -0.098013      1.020200     -0.758901
  H      -1.503429     -1.385099     -1.198976
  H      -0.937415     -1.642109      0.557372
  H      -3.265125     -0.660987      0.384185
  H      -2.263437      0.457647      1.305900
  H      -2.612007      0.780853     -0.388320
  O      -1.708196     -1.988447     -2.239764
  H      -0.781045     -2.010864     -2.590469
17
Coordinates from ORCA-job optts E -268.750132237467
  C       2.576483      0.388790     -0.566312
  C       1.339281     -0.435551     -0.226908
  C       0.065748      0.024193     -0.373218
  C      -1.140970     -0.788423     -0.079210
  C      -2.403803     -0.003082      0.331921
  H       3.175246     -0.107926     -1.326040
  H       2.293017      1.367483     -0.936405
  H       3.203979      0.520123      0.312001
  H       1.507031     -1.432495      0.155709
  H      -0.098056      1.020054     -0.758923
  H      -1.503298     -1.385559     -1.198582
  H      -0.937386     -1.642008      0.557863
  H      -3.265179     -0.661021      0.384040
  H      -2.263663      0.457749      1.305774
  H      -2.611929      0.780706     -0.388556
  O      -1.708055     -1.988318     -2.239746
  H      -0.781019     -2.009850     -2.590809
