17
Coordinates from ORCA-job opt E -268.798051761742
  C           2.29131064464561     -3.96042910004272      2.02083605970025
  C           1.52264929462015     -2.87233165957361      1.27761660692592
  C           2.09408866923728     -1.80629942207901      0.74859773213501
  C           1.37046669065505     -0.69037874358051     -0.00203415314766
  C          -0.15537521702599     -0.91223366056640     -0.12677407207070
  H           3.35000704400898     -3.73006166765795      2.04653548507640
  H           2.15827114201000     -4.92418524847985      1.53580958481566
  H           1.93227231163654     -4.05387966719784      3.04266726259892
  H           0.45619317626800     -3.01867303428158      1.20312712054482
  H           3.16367697658982     -1.67746626420400      0.83522992159973
  H           1.81282081107250     -0.59019235005588     -0.99035016143751
  H           1.55473525284526      0.25217317983047      0.50782942686895
  H          -0.61278696035680     -0.10183924660603     -0.68378463683739
  H          -0.37037790695219     -1.84778201208402     -0.62950559506519
  H          -0.61326989853849     -0.94913724365140      0.85478027979316
  O           0.68230295544584     -1.13505011514324     -3.72634275959931
  H           0.36654001383842     -1.30500374462638     -2.78764210190106
