17
Coordinates from ORCA-job opt E -268.794324680620
  C       2.341369     -3.951511      1.921034
  C       1.499754     -2.900005      1.205151
  C       2.013388     -1.801560      0.678925
  C       1.247434     -0.742574     -0.107171
  C      -0.290874     -0.810846      0.042386
  H       3.383641     -3.654243      1.935487
  H       2.264487     -4.912228      1.418004
  H       2.004568     -4.086434      2.945329
  H       0.442250     -3.102739      1.136024
  H       3.077439     -1.625897      0.751319
  H       1.523912     -0.856131     -1.149173
  H       1.595384      0.244416      0.179707
  H      -0.761006     -0.038121     -0.556603
  H      -0.676675     -1.772060     -0.275615
  H      -0.574985     -0.658477      1.077486
  O       1.432680     -1.268870     -3.187250
  H       0.480759     -1.385490     -2.888444
17
Coordinates from ORCA-job opt E -268.795763788999
  C       2.331559     -3.946833      1.954078
  C       1.503837     -2.893372      1.223622
  C       2.028682     -1.813821      0.668719
  C       1.258698     -0.745352     -0.103448
  C      -0.276887     -0.842652      0.045000
  H       3.380435     -3.674589      1.949030
  H       2.224881     -4.917283      1.476025
  H       2.004735     -4.049925      2.985658
  H       0.440064     -3.070310      1.184201
  H       3.095656     -1.651635      0.725827
  H       1.532079     -0.823938     -1.156559
  H       1.591179      0.237034      0.219842
  H      -0.760812     -0.050403     -0.515364
  H      -0.644372     -1.794203     -0.319530
  H      -0.561440     -0.749159      1.086780
  O       1.401169     -1.200932     -3.303220
  H       0.454063     -1.335396     -2.994067
17
Coordinates from ORCA-job opt E -268.796703254291
  C       2.323886     -3.942326      1.982444
  C       1.507723     -2.882111      1.249018
  C       2.041118     -1.823729      0.665018
  C       1.269769     -0.747705     -0.097063
  C      -0.265974     -0.871479      0.043543
  H       3.378989     -3.696306      1.955440
  H       2.184951     -4.918691      1.525149
  H       2.012633     -4.018490      3.020996
  H       0.440590     -3.037831      1.232604
  H       3.112092     -1.681854      0.697161
  H       1.541208     -0.794527     -1.152354
  H       1.587046      0.227762      0.259408
  H      -0.760537     -0.065290     -0.486060
  H      -0.615252     -1.813280     -0.361797
  H      -0.556499     -0.827045      1.086495
  O       1.370940     -1.140511     -3.408212
  H       0.430842     -1.289357     -3.085192
17
Coordinates from ORCA-job opt E -268.797198874897
  C       2.323131     -3.939779      2.006402
  C       1.509967     -2.874741      1.277404
  C       2.046370     -1.838151      0.660348
  C       1.273519     -0.750723     -0.083815
  C      -0.262831     -0.892591      0.037865
  H       3.382442     -3.719121      1.946278
  H       2.149046     -4.920716      1.571714
  H       2.039112     -3.989677      3.054549
  H       0.439827     -3.009851      1.293611
  H       3.120631     -1.718998      0.658324
  H       1.551239     -0.769558     -1.136894
  H       1.578910      0.218406      0.302029
  H      -0.759983     -0.075462     -0.472517
  H      -0.596555     -1.825444     -0.400328
  H      -0.565547     -0.881524      1.078116
  O       1.354609     -1.086402     -3.498949
  H       0.419636     -1.248439     -3.167542
17
Coordinates from ORCA-job opt E -268.797438341435
  C       2.326093     -3.940797      2.021352
  C       1.510184     -2.867819      1.307186
  C       2.045649     -1.849028      0.661465
  C       1.271740     -0.752310     -0.066857
  C      -0.264667     -0.906555      0.032726
  H       3.387121     -3.742705      1.923860
  H       2.117906     -4.923058      1.604838
  H       2.075916     -3.972228      3.078666
  H       0.438910     -2.984710      1.356798
  H       3.121454     -1.751507      0.622882
  H       1.562701     -0.748952     -1.115524
  H       1.566189      0.211400      0.339975
  H      -0.759724     -0.089201     -0.479268
  H      -0.584325     -1.839287     -0.416269
  H      -0.582897     -0.901730      1.068321
  O       1.351338     -1.045356     -3.574380
  H       0.419937     -1.218927     -3.239173
17
Coordinates from ORCA-job opt E -268.797511160729
  C       2.328309     -3.942694      2.028666
  C       1.509748     -2.864748      1.324893
  C       2.044171     -1.855337      0.663801
  C       1.269929     -0.752806     -0.054463
  C      -0.266263     -0.913782      0.030603
  H       3.389149     -3.757439      1.907103
  H       2.100048     -4.924967      1.623071
  H       2.100482     -3.964465      3.091356
  H       0.438320     -2.969899      1.395517
  H       3.120017     -1.769466      0.604395
  H       1.572782     -0.735399     -1.099290
  H       1.557207      0.208003      0.365193
  H      -0.759375     -0.101606     -0.491622
  H      -0.576901     -1.851119     -0.415034
  H      -0.595398     -0.902462      1.062830
  O       1.349985     -1.021250     -3.624592
  H       0.421315     -1.203334     -3.285832
17
Coordinates from ORCA-job opt E -268.797528141581
  C       2.328499     -3.944205      2.030702
  C       1.509483     -2.864008      1.330767
  C       2.044425     -1.856188      0.667319
  C       1.270469     -0.751769     -0.048591
  C      -0.265486     -0.915630      0.029812
  H       3.389125     -3.762143      1.902592
  H       2.094855     -4.926043      1.626995
  H       2.106999     -3.964681      3.094691
  H       0.438041     -2.965748      1.405727
  H       3.120199     -1.772978      0.603489
  H       1.579684     -0.728545     -1.091301
  H       1.553989      0.207824      0.376213
  H      -0.757976     -0.107946     -0.499828
  H      -0.572030     -1.856663     -0.410920
  H      -0.599355     -0.898909      1.060475
  O       1.344284     -1.014146     -3.647532
  H       0.418318     -1.200993     -3.304013
17
Coordinates from ORCA-job opt E -268.797539831417
  C       2.327753     -3.945546      2.031387
  C       1.509496     -2.864582      1.331691
  C       2.045947     -1.855098      0.671728
  C       1.273012     -0.749855     -0.044344
  C      -0.262880     -0.915484      0.028482
  H       3.388404     -3.762546      1.904851
  H       2.095246     -4.926828      1.625726
  H       2.104925     -3.967991      3.095078
  H       0.437869     -2.966408      1.403622
  H       3.121793     -1.770707      0.611013
  H       1.587241     -0.723067     -1.085408
  H       1.553679      0.209090      0.383995
  H      -0.754801     -0.110770     -0.506150
  H      -0.566677     -1.858757     -0.409356
  H      -0.600199     -0.896076      1.058011
  O       1.332468     -1.013482     -3.662492
  H       0.410247     -1.204662     -3.311236
17
Coordinates from ORCA-job opt E -268.797559801716
  C       2.325647     -3.947842      2.031423
  C       1.510023     -2.866375      1.329397
  C       2.049904     -1.851033      0.680896
  C       1.279889     -0.745208     -0.037894
  C      -0.256041     -0.913444      0.023903
  H       3.386591     -3.759847      1.915118
  H       2.100713     -4.927944      1.618657
  H       2.093586     -3.976802      3.092966
  H       0.438039     -2.971653      1.389350
  H       3.125920     -1.761567      0.632232
  H       1.602541     -0.713753     -1.076239
  H       1.555521      0.212805      0.395795
  H      -0.746195     -0.111059     -0.515730
  H      -0.555460     -1.858186     -0.413845
  H      -0.599784     -0.894122      1.051341
  O       1.303035     -1.018715     -3.680004
  H       0.389596     -1.218024     -3.310770
17
Coordinates from ORCA-job opt E -268.797598791353
  C       2.320446     -3.952304      2.029505
  C       1.512191     -2.870834      1.319029
  C       2.059310     -1.840174      0.700789
  C       1.297183     -0.733805     -0.026089
  C      -0.238860     -0.906910      0.010104
  H       3.381745     -3.750044      1.944643
  H       2.118831     -4.929264      1.597692
  H       2.060067     -3.998735      3.083850
  H       0.440091     -2.987371      1.346130
  H       3.135071     -1.737234      0.684883
  H       1.637086     -0.694797     -1.058662
  H       1.561987      0.222736      0.417552
  H      -0.723589     -0.104693     -0.534566
  H      -0.529166     -1.851008     -0.435131
  H      -0.597608     -0.894212      1.032552
  O       1.229900     -1.038940     -3.698811
  H       0.338842     -1.255183     -3.286875
17
Coordinates from ORCA-job opt E -268.797655908637
  C       2.313669     -3.956685      2.026246
  C       1.516031     -2.874586      1.304907
  C       2.070711     -1.826726      0.723010
  C       1.319752     -0.719244     -0.013804
  C      -0.215902     -0.899741     -0.013673
  H       3.374377     -3.739170      1.980997
  H       2.140272     -4.929234      1.572722
  H       2.018151     -4.023413      3.070189
  H       0.445216     -3.004427      1.292284
  H       3.144795     -1.709133      0.747294
  H       1.681625     -0.670330     -1.038526
  H       1.569214      0.235161      0.443021
  H      -0.692658     -0.092074     -0.557324
  H      -0.492602     -1.838454     -0.478496
  H      -0.596136     -0.904294      1.001072
  O       1.132413     -1.066309     -3.700112
  H       0.274596     -1.304111     -3.233212
17
Coordinates from ORCA-job opt E -268.797767601081
  C       2.298729     -3.963380      2.013806
  C       1.525762     -2.879306      1.269174
  C       2.091364     -1.798890      0.761772
  C       1.365374     -0.688770      0.004599
  C      -0.166702     -0.885044     -0.072668
  H       3.353450     -3.717488      2.053489
  H       2.186013     -4.924852      1.519344
  H       1.930000     -4.071558      3.030664
  H       0.462580     -3.035514      1.174541
  H       3.157205     -1.654887      0.868281
  H       1.771721     -0.620896     -1.002416
  H       1.580948      0.261436      0.486447
  H      -0.626707     -0.063267     -0.609762
  H      -0.411315     -1.809355     -0.582050
  H      -0.593247     -0.928718      0.922542
  O       0.926883     -1.133026     -3.644103
  H       0.151468     -1.409254     -3.067064
17
Coordinates from ORCA-job opt E -268.797802348954
  C       2.294186     -3.963383      2.009624
  C       1.528166     -2.877434      1.260662
  C       2.096027     -1.792964      0.765369
  C       1.376175     -0.681082      0.005681
  C      -0.153846     -0.885464     -0.095419
  H       3.347617     -3.715296      2.066464
  H       2.191194     -4.922305      1.508120
  H       1.910627     -4.078056      3.020274
  H       0.466851     -3.037885      1.152441
  H       3.160224     -1.647195      0.885472
  H       1.796015     -0.605327     -0.995498
  H       1.580065      0.267033      0.496514
  H      -0.609937     -0.059169     -0.629193
  H      -0.385123     -1.805247     -0.618715
  H      -0.595874     -0.940928      0.892431
  O       0.874232     -1.145276     -3.602588
  H       0.126926     -1.432792     -2.995043
17
Coordinates from ORCA-job opt E -268.797859681955
  C       2.297929     -3.958001      2.013895
  C       1.524348     -2.870468      1.275087
  C       2.089593     -1.804598      0.740000
  C       1.360422     -0.691488     -0.007862
  C      -0.170463     -0.900135     -0.092159
  H       3.356888     -3.728383      2.034002
  H       2.162210     -4.922138      1.530526
  H       1.944533     -4.050450      3.037733
  H       0.457695     -3.018866      1.209597
  H       3.160140     -1.676922      0.817426
  H       1.770804     -0.615565     -1.013319
  H       1.570064      0.256104      0.481586
  H      -0.632055     -0.075902     -0.624796
  H      -0.402777     -1.823646     -0.607913
  H      -0.606034     -0.946697      0.898996
  O       0.943854     -1.105846     -3.574623
  H       0.176373     -1.389769     -2.991580
17
Coordinates from ORCA-job opt E -268.797881251583
  C       2.298181     -3.956913      2.013577
  C       1.522980     -2.868114      1.278145
  C       2.088429     -1.807800      0.732695
  C       1.357775     -0.693046     -0.012234
  C      -0.171931     -0.904706     -0.100420
  H       3.358465     -3.732802      2.022953
  H       2.152929     -4.922005      1.534941
  H       1.953854     -4.043790      3.040981
  H       0.455025     -3.011674      1.224898
  H       3.160379     -1.685900      0.798994
  H       1.771245     -0.612537     -1.015599
  H       1.564072      0.253528      0.480867
  H      -0.633615     -0.085866     -0.641112
  H      -0.400563     -1.833546     -0.608511
  H      -0.610626     -0.944059      0.889652
  O       0.950213     -1.093042     -3.550133
  H       0.186713     -1.380499     -2.963099
17
Coordinates from ORCA-job opt E -268.797896148443
  C       2.298221     -3.956443      2.013529
  C       1.521052     -2.866696      1.281376
  C       2.087627     -1.810778      0.728118
  C       1.355995     -0.694948     -0.014763
  C      -0.172881     -0.908361     -0.106370
  H       3.359326     -3.736068      2.011852
  H       2.144860     -4.922391      1.539147
  H       1.963551     -4.039120      3.044446
  H       0.451968     -3.004826      1.237031
  H       3.160482     -1.692755      0.785841
  H       1.773566     -0.608629     -1.015911
  H       1.558381      0.250261      0.482766
  H      -0.634662     -0.098444     -0.660036
  H      -0.399657     -1.844871     -0.601323
  H      -0.613559     -0.936878      0.883261
  O       0.953572     -1.080355     -3.537413
  H       0.195682     -1.371471     -2.944958
17
Coordinates from ORCA-job opt E -268.797899561144
  C       2.297996     -3.956453      2.013963
  C       1.520635     -2.867201      1.281287
  C       2.087888     -1.811440      0.728121
  C       1.356556     -0.695524     -0.014884
  C      -0.172343     -0.908738     -0.107560
  H       3.358990     -3.735582      2.011116
  H       2.144582     -4.922758      1.540319
  H       1.964338     -4.038741      3.045239
  H       0.451521     -3.004380      1.236070
  H       3.160634     -1.692898      0.786291
  H       1.775455     -0.607268     -1.015359
  H       1.557854      0.249136      0.484241
  H      -0.633829     -0.100769     -0.664235
  H      -0.399460     -1.846683     -0.599731
  H      -0.613285     -0.935248      0.882008
  O       0.950035     -1.078102     -3.538570
  H       0.195958     -1.370121     -2.941721
17
Coordinates from ORCA-job opt E -268.797903828071
  C       2.297826     -3.956298      2.014830
  C       1.520269     -2.868069      1.280929
  C       2.088078     -1.812402      0.727855
  C       1.357036     -0.696636     -0.015543
  C      -0.172034     -0.909197     -0.108558
  H       3.358647     -3.734634      2.010938
  H       2.144712     -4.923290      1.542479
  H       1.964985     -4.037710      3.046442
  H       0.451141     -3.004432      1.234051
  H       3.160670     -1.692936      0.786715
  H       1.776681     -0.606656     -1.015631
  H       1.557757      0.247453      0.484985
  H      -0.633157     -0.101869     -0.666443
  H      -0.400183     -1.847486     -0.599648
  H      -0.612724     -0.935092      0.881144
  O       0.946071     -1.075665     -3.540906
  H       0.197752     -1.367849     -2.937043
17
Coordinates from ORCA-job opt E -268.797911538963
  C       2.297846     -3.955963      2.016300
  C       1.519792     -2.869519      1.280461
  C       2.087981     -1.814175      0.726771
  C       1.356978     -0.698806     -0.017127
  C      -0.172414     -0.910088     -0.109684
  H       3.358517     -3.733642      2.009941
  H       2.144389     -4.924324      1.546867
  H       1.966911     -4.034963      3.048726
  H       0.450635     -3.004758      1.231674
  H       3.160388     -1.693377      0.785935
  H       1.776865     -0.606999     -1.016989
  H       1.557595      0.244662      0.484759
  H      -0.632975     -0.102625     -0.667841
  H      -0.402570     -1.848170     -0.600320
  H      -0.612298     -0.935612      0.880375
  O       0.941561     -1.071801     -3.545594
  H       0.204326     -1.362609     -2.927659
17
Coordinates from ORCA-job opt E -268.797926034697
  C       2.297774     -3.955514      2.018100
  C       1.519352     -2.871522      1.279332
  C       2.087813     -1.816265      0.725316
  C       1.356769     -0.701657     -0.019480
  C      -0.172967     -0.911463     -0.111875
  H       3.358366     -3.732927      2.008338
  H       2.143316     -4.925910      1.553226
  H       1.969336     -4.030387      3.051662
  H       0.450201     -3.005673      1.227352
  H       3.159922     -1.693367      0.785307
  H       1.777075     -0.607784     -1.018975
  H       1.557161      0.241206      0.483789
  H      -0.632680     -0.102590     -0.668762
  H      -0.405489     -1.848401     -0.603670
  H      -0.612164     -0.937805      0.878464
  O       0.931058     -1.068120     -3.554945
  H       0.218681     -1.354590     -2.906582
17
Coordinates from ORCA-job opt E -268.797950305722
  C       2.297665     -3.955222      2.019681
  C       1.519152     -2.873665      1.277780
  C       2.087406     -1.817876      0.724228
  C       1.355974     -0.704360     -0.021696
  C      -0.174020     -0.913000     -0.113939
  H       3.358410     -3.733513      2.005967
  H       2.141007     -4.927879      1.560334
  H       1.972023     -4.024595      3.054560
  H       0.450120     -3.007508      1.222165
  H       3.159141     -1.692459      0.785532
  H       1.776611     -0.609492     -1.020834
  H       1.556267      0.238472      0.481801
  H      -0.633072     -0.101553     -0.667753
  H      -0.408647     -1.848060     -0.608417
  H      -0.612643     -0.941310      0.876594
  O       0.912770     -1.067542     -3.574288
  H       0.245360     -1.343206     -2.875117
17
Coordinates from ORCA-job opt E -268.797984955517
  C       2.296838     -3.955809      2.019436
  C       1.519719     -2.874547      1.275811
  C       2.087669     -1.816396      0.726374
  C       1.356422     -0.703750     -0.021068
  C      -0.173200     -0.913600     -0.116508
  H       3.357881     -3.735397      2.006582
  H       2.139370     -4.929002      1.561557
  H       1.969989     -4.022998      3.054134
  H       0.451133     -3.010486      1.215433
  H       3.158913     -1.688717      0.791598
  H       1.779213     -0.609299     -1.019081
  H       1.555036      0.239884      0.481574
  H      -0.631855     -0.099982     -0.667636
  H      -0.406534     -1.847248     -0.614324
  H      -0.613785     -0.944366      0.873096
  O       0.877800     -1.076755     -3.602937
  H       0.278916     -1.334303     -2.837445
17
Coordinates from ORCA-job opt E -268.798016620916
  C       2.296040     -3.956750      2.017929
  C       1.520554     -2.873107      1.275856
  C       2.087999     -1.813255      0.729793
  C       1.356946     -0.700268     -0.017595
  C      -0.171918     -0.913439     -0.116453
  H       3.357537     -3.738286      2.008981
  H       2.138228     -4.928322      1.556742
  H       1.965801     -4.025934      3.051424
  H       0.452273     -3.012062      1.215832
  H       3.159187     -1.686219      0.797462
  H       1.781753     -0.607882     -1.014689
  H       1.553873      0.244558      0.483269
  H      -0.631641     -0.099955     -0.666968
  H      -0.401071     -1.847442     -0.615556
  H      -0.615036     -0.945566      0.871999
  O       0.848691     -1.089541     -3.630870
  H       0.304308     -1.329301     -2.820559
17
Coordinates from ORCA-job opt E -268.798032195602
  C       2.294615     -3.957677      2.015975
  C       1.521140     -2.871078      1.275738
  C       2.089128     -1.809473      0.734076
  C       1.359641     -0.695498     -0.013599
  C      -0.168201     -0.912721     -0.118658
  H       3.356078     -3.738888      2.014869
  H       2.140072     -4.926496      1.547910
  H       1.957889     -4.032837      3.046933
  H       0.453294     -3.013324      1.215080
  H       3.160216     -1.683639      0.805656
  H       1.788408     -0.603438     -1.008935
  H       1.553327      0.249711      0.487637
  H      -0.628625     -0.101502     -0.671921
  H      -0.391710     -1.848436     -0.617087
  H      -0.615350     -0.945104      0.867991
  O       0.817929     -1.102457     -3.647717
  H       0.315673     -1.329912     -2.807352
17
Coordinates from ORCA-job opt E -268.798040634965
  C       2.293696     -3.958501      2.016361
  C       1.521373     -2.870876      1.276211
  C       2.090092     -1.807902      0.738094
  C       1.362058     -0.693229     -0.010173
  C      -0.165177     -0.912407     -0.120018
  H       3.354774     -3.737911      2.021288
  H       2.143138     -4.925764      1.543763
  H       1.951947     -4.038108      3.045317
  H       0.453912     -3.015066      1.213309
  H       3.160894     -1.681938      0.813548
  H       1.794288     -0.599922     -1.003746
  H       1.553146      0.251731      0.492530
  H      -0.625583     -0.102640     -0.675417
  H      -0.385848     -1.849144     -0.617932
  H      -0.614901     -0.944992      0.865455
  O       0.783765     -1.111710     -3.672525
  H       0.331951     -1.324391     -2.799469
17
Coordinates from ORCA-job opt E -268.798047433839
  C       2.292150     -3.959718      2.017406
  C       1.522015     -2.871010      1.276357
  C       2.092259     -1.805656      0.744756
  C       1.367168     -0.689865     -0.004792
  C      -0.159098     -0.911499     -0.123651
  H       3.352149     -3.734592      2.034041
  H       2.150465     -4.924517      1.537017
  H       1.940683     -4.047489      3.042389
  H       0.455286     -3.017914      1.207411
  H       3.162385     -1.678696      0.827640
  H       1.805370     -0.593349     -0.995345
  H       1.553767      0.254079      0.501530
  H      -0.618363     -0.102651     -0.681317
  H      -0.375385     -1.848536     -0.622990
  H      -0.613771     -0.945960      0.859491
  O       0.731427     -1.125539     -3.700557
  H       0.345018     -1.319858     -2.792791
17
Coordinates from ORCA-job opt E -268.798050252134
  C       2.291848     -3.960006      2.019267
  C       1.522095     -2.871655      1.277357
  C       2.092975     -1.806199      0.746612
  C       1.368690     -0.690192     -0.003258
  C      -0.157422     -0.911955     -0.124844
  H       3.351312     -3.732645      2.039157
  H       2.153556     -4.924458      1.537150
  H       1.937686     -4.050013      3.043116
  H       0.455460     -3.018308      1.206341
  H       3.162910     -1.678688      0.830990
  H       1.808917     -0.591499     -0.992713
  H       1.554004      0.252912      0.505149
  H      -0.615915     -0.102744     -0.682639
  H      -0.373209     -1.848552     -0.625267
  H      -0.613455     -0.947298      0.857635
  O       0.708579     -1.128691     -3.715330
  H       0.355493     -1.312780     -2.792128
17
Coordinates from ORCA-job opt E -268.798051455080
  C       2.291298     -3.960352      2.020633
  C       1.522515     -2.872377      1.277293
  C       2.094111     -1.806239      0.748631
  C       1.370863     -0.690058     -0.001896
  C      -0.154964     -0.911964     -0.127171
  H       3.350024     -3.730082      2.045761
  H       2.157904     -4.924247      1.535993
  H       1.932741     -4.053455      3.042667
  H       0.456127     -3.019019      1.202590
  H       3.163678     -1.677558      0.835758
  H       1.813434     -0.589248     -0.990077
  H       1.554699      0.252232      0.508622
  H      -0.612228     -0.101805     -0.684627
  H      -0.369807     -1.847641     -0.629718
  H      -0.613091     -0.948841      0.854274
  O       0.686283     -1.132996     -3.722995
  H       0.359937     -1.309119     -2.789142
17
Coordinates from ORCA-job opt E -268.798051601871
  C       2.291231     -3.960421      2.021101
  C       1.522591     -2.872530      1.277551
  C       2.094210     -1.806428      0.748842
  C       1.370882     -0.690387     -0.001829
  C      -0.154924     -0.912289     -0.127323
  H       3.349859     -3.729765      2.046942
  H       2.158505     -4.924277      1.536186
  H       1.932056     -4.053858      3.042887
  H       0.456187     -3.018955      1.202490
  H       3.163747     -1.677517      0.835978
  H       1.813731     -0.589456     -0.989859
  H       1.554667      0.251897      0.508726
  H      -0.612105     -0.101914     -0.684554
  H      -0.369799     -1.847826     -0.630133
  H      -0.613190     -0.949281      0.854056
  O       0.678917     -1.134713     -3.727333
  H       0.366960     -1.305051     -2.787132
17
Coordinates from ORCA-job opt E -268.798051688583
  C       2.291473     -3.960366      2.021056
  C       1.522538     -2.872342      1.278008
  C       2.093902     -1.806612      0.748313
  C       1.370087     -0.690694     -0.002127
  C      -0.155854     -0.912340     -0.126101
  H       3.350208     -3.730108      2.046073
  H       2.158040     -4.924229      1.536347
  H       1.933027     -4.053533      3.043120
  H       0.456003     -3.018466      1.204220
  H       3.163577     -1.678029      0.834240
  H       1.812015     -0.590604     -0.990650
  H       1.554749      0.251840      0.507630
  H      -0.613407     -0.102009     -0.683086
  H      -0.371260     -1.847968     -0.628524
  H      -0.613273     -0.948966      0.855684
  O       0.684294     -1.133974     -3.727925
  H       0.367406     -1.304372     -2.789681
17
Coordinates from ORCA-job opt E -268.798051761742
  C       2.291311     -3.960429      2.020836
  C       1.522649     -2.872332      1.277617
  C       2.094089     -1.806299      0.748598
  C       1.370467     -0.690379     -0.002034
  C      -0.155375     -0.912234     -0.126774
  H       3.350007     -3.730062      2.046535
  H       2.158271     -4.924185      1.535810
  H       1.932272     -4.053880      3.042667
  H       0.456193     -3.018673      1.203127
  H       3.163677     -1.677466      0.835230
  H       1.812821     -0.590192     -0.990350
  H       1.554735      0.252173      0.507829
  H      -0.612787     -0.101839     -0.683785
  H      -0.370378     -1.847782     -0.629506
  H      -0.613270     -0.949137      0.854780
  O       0.682303     -1.135050     -3.726343
  H       0.366540     -1.305004     -2.787642
