17
Coordinates from ORCA-job opt E -20.248962641850
  C           2.49721423576228      0.34611426952382     -0.58629754575439
  C           1.29317173305379     -0.44985744176075     -0.22881131948166
  C           0.03340673416382     -0.04706481194668     -0.41842124214061
  C          -1.14975286000000     -0.84040669000000     -0.07800939000000
  C          -2.37016614157029     -0.02738109322924      0.31391582506920
  H           3.11163053784356     -0.20564992960577     -1.29831275029973
  H           2.22290517255816      1.30275996870384     -1.02368930534863
  H           3.10955248569162      0.52306698321525      0.29812255792986
  H           1.48376733911549     -1.41667125477503      0.21933057529547
  H          -0.15250436248628      0.91487129348430     -0.88008966225433
  H          -1.47472591000000     -1.40727781000000     -0.94645071000000
  H          -0.91989872174772     -1.61602332505348      0.65786806842611
  H          -3.23012840572339     -0.67453824534673      0.46486249548186
  H          -2.17935044131219      0.51278189801776      1.24174031248046
  H          -2.61391978194489      0.69705319188015     -0.45956853901376
  O          -1.49561491000000     -1.93335348000000     -2.24368162000000
  H          -0.71815843482602     -1.57355938650682     -2.66990898107588
