
                                 *****************
                                 * O   R   C   A *
                                 *****************

                                            #,                                       
                                            ###                                      
                                            ####                                     
                                            #####                                    
                                            ######                                   
                                           ########,                                 
                                     ,,################,,,,,                         
                               ,,#################################,,                 
                          ,,##########################################,,             
                       ,#########################################, ''#####,          
                    ,#############################################,,   '####,        
                  ,##################################################,,,,####,       
                ,###########''''           ''''###############################       
              ,#####''   ,,,,##########,,,,          '''####'''          '####       
            ,##' ,,,,###########################,,,                        '##       
           ' ,,###''''                  '''############,,,                           
         ,,##''                                '''############,,,,        ,,,,,,###''
      ,#''                                            '''#######################'''  
     '                                                          ''''####''''         
             ,#######,   #######,   ,#######,      ##                                
            ,#'     '#,  ##    ##  ,#'     '#,    #''#        ,####,    ,#,          
            ##       ##  ##   ,#'  ##            #'  '#       #'       ,# #          
            ##       ##  #######   ##           ,######,      #####,      #          
            '#,     ,#'  ##    ##  '#,     ,#' ,#      #,     #,   #      #          
             '#######'   ##     ##  '#######'  #'      '#     '####' #    #          



                #########################################################
                #                        -***-                          #
                #          Department of theory and spectroscopy        #
                #                                                       #
                #                      Frank Neese                      #
                #                                                       #
                #     Directorship, Architecture, Infrastructure        #
                #                    SHARK, DRIVERS                     #
                #        Core code/Algorithms in most modules           #
                #                                                       #
                #        Max Planck Institute fuer Kohlenforschung      #
                #                Kaiser Wilhelm Platz 1                 #
                #                 D-45470 Muelheim/Ruhr                 #
                #                      Germany                          #
                #                                                       #
                #                  All rights reserved                  #
                #                        -***-                          #
                #########################################################


                         Program Version 6.1.1  -  RELEASE   -
                                (GIT: $487d211c$)
                          ($2025-11-21 10:33:24 +0100$)


 With contributions from (in alphabetic order):
[Max-Planck-Institut fuer Kohlenforschung]                               
  Daniel Aravena         : Magnetic Suceptibility                        
  Michael Atanasov       : Ab Initio Ligand Field Theory (pilot matlab implementation)
  Alexander A. Auer      : GIAO ZORA, VPT2 properties, NMR spectrum      
  Ute Becker             : All parallelization in ORCA, NUMFREQ, NUMCALC 
  Giovanni Bistoni       : ED, misc. LED, open-shell LED, HFLD           
  Dmytro Bykov           : pre 5.0 version of the SCF Hessian            
  Marcos Casanova-Páez   : Triplet and SCS-CIS(D). UHF-(DLPNO)-IP/EA/STEOM-CCSD. UHF-CVS-IP/STEOM-CCSD   
  Vijay G. Chilkuri      : MRCI spin determinant printing, contributions to CSF-ICE 
  Pauline Colinet        : FMM embedding                                 
  Dipayan Datta          : RHF DLPNO-CCSD density                        
  Achintya Kumar Dutta   : EOM-CC, STEOM-CC                              
  Nicolas Foglia         : Exact transition moments, OPA infrastructure, MCD improvements    
  Dmitry Ganyushin       : Spin-Orbit,Spin-Spin,Magnetic field MRCI      
  Miquel Garcia-Rates    : C-PCM and meta-GGA Hessian, CCSD/C-PCM, Gaussian charge scheme 
  Tiago L. C. Gouveia    : GS-ROHF, GS-ROCIS                             
  Yang Guo               : DLPNO-NEVPT2, F12-NEVPT2, CIM, IAO-localization        
  Andreas Hansen         : Spin unrestricted coupled pair/coupled cluster methods 
  Ingolf Harden          : AUTO-CI MPn and infrastructure                
  Benjamin Helmich-Paris : MC-RPA, TRAH-(SCF,CASSCF), AVAS, COSX integrals, SCF dyn. polar., MC-PDFT, srDFT 
  Lee Huntington         : MR-EOM, pCC                                   
  Robert Izsak           : Overlap fitted RIJCOSX, COSX-SCS-MP3, EOM     
  Riya Kayal             : Wick's Theorem for AUTO-CI, AUTO-CI UHF-CCSDT 
  Emily Kempfer          : AUTO-CI RHF CISDT and CCSDT, approximate NEVPT4
  Christian Kollmar      : KDIIS, OOCD, Brueckner-CCSD(T), CCSD density, CASPT2, CASPT2-K, improved NEVPT2 
  Axel Koslowski         : Symmetry handling                             
  Simone Kossmann        : meta-GGA functionals, TD-DFT gradient, OOMP2, (MP2 Hessian; deprecated post 5.0) 
  Lucas Lang             : DCDCAS, Hyperfine gauge corrections, ICE-SOC+SSC
  Marvin Lechner         : AUTO-CI (C++ implementation), FIC-MRCC        
  Spencer Leger          : CASSCF response                               
  Dagmar Lenk            : GEPOL surface, SMD, ORCA-2-JSON               
  Dimitrios Liakos       : Extrapolation schemes; Compound Job, Property file
  Dimitrios Manganas     : Further ROCIS development; embedding schemes. LFT, Crystal Embedding 
  Dimitrios Pantazis     : SARC Basis sets                               
  Anastasios Papadopoulos: AUTO-CI, single reference methods and gradients 
  Taras Petrenko         : pre 6.0 DFT Hessian and TD-DFT gradient,  ECA, NRVS 
  Petra Pikulova         : Analytic Raman intensities                    
  Peter Pinski           : DLPNO-MP2, DLPNO-MP2 Gradient                 
  Shashank Vittal Rao    : ES-AILFT, MagRelax                            
  Christoph Reimann      : Effective Core Potentials                     
  Marius Retegan         : Local ZFS, SOC                                
  Christoph Riplinger    : Optimizer, TS searches, QM/MM, DLPNO-CCSD(T), (RO)-DLPNO pert. Triples 
  Michael Roemelt        : Original ROCIS implementation, recursive CI coupling coefficients
  Masaaki Saitow         : Open-shell DLPNO-CCSD energy and density      
  Barbara Sandhoefer     : DKH picture change effects                    
  Yorick L. A. Schmerwitz: GMF and freeze-and-release deltaSCF, NEB S-IDPP initial path                    
  Kantharuban Sivalingam : CASSCF convergence/infrastructure, NEVPT2, NEVPT3, NEVPT4(SD), FIC-MRCI and CEPA variants
  Bernardo de Souza      : ESD, SOC TD-DFT                               
  Georgi L. Stoychev     : AutoAux, RI-MP2 NMR, DLPNO-MP2 response, X2C  
  Van Anh Tran           : RI-MP2 g-tensors                              
  Willem Van den Heuvel  : Paramagnetic NMR                              
  Zikuan Wang            : NOTCH, Electric field optimization            
  Frank Wennmohs         : Technical directorship and infrastructure     
  Hang Xu                : AUTO-CI-Response properties                   
                                                                         
[FACCTs GmbH]                                                            
  Markus Bursch, Nicolas Foglia, Miquel Garcia-Rates, Ingolf Harden, Hagen Neugebauer, Anastasios Papadopoulos, 
  Christoph Riplinger, Bernardo de Souza, Georgi L. Stoychev                                                    
                                                                 
  APM, various basis sets, CI-OPT, improved COSX, DLPNO-Multilevel,           
  DOCKER, DRACO, updates on ESD, Fragmentator, GOAT, IRC, LR-CPCM, L-BFGS, MBIS, meta-GGA TD-DFT gradient, ML-optimized integration grids, 
  MM, NACMEs, nearIR, NEB, NEB-TS, NL-DFT gradient (VV10), 2- and 3-layer-ONIOM, interface openCOSMO-RS, QMMM,   
  Crystal-QMMM, RESP, rigid body optimization, SF, symmetry and pop. for TD-DFT, various functionals, SOLVATOR                                   
                                                                         
[Other institutions]                                                     
  V. Asgeirsson          : NEB                                           
  Christoph Bannwarth    : sTDA-DFT, sTD-DFT, PBEh-3c, B97-3c, D3        
  Giovanni Bistoni       : ETS/NOCV, ADLD/ADEX, COVALED                  
  Martin Brehm           : Molecular dynamics                            
  Ronald Cardenas        : ETS/NOCV                                      
  Martina Colucci        : COVALED                                       
  Sebastian Ehlert       : rSCAN, r2SCAN, r2SCAN-3c, D4, dhf basis sets  
  Marvin Friede          : D4 for Fr, Ra, Ac-Lr                          
  Lars Goerigk           : TD-DFT with DH, B97 family of functionals     
  Stefan Grimme          : VdW corrections, initial TS optimization, DFT functionals, gCP, sTDA/sTD-DF 
  Waldemar Hujo          : DFT-NL                                        
  H. Jonsson             : NEB                                           
  Holger Kruse           : gCP                                           
  Marcel Mueller         : wB97X-3c, vDZP basis set                      
  Hagen Neugebauer       : wr2SCAN, Native XTB                           
  Gianluca Regni         : ADLD/ADEX                                     
  Tobias Risthaus        : pre 6.0 range-separated hybrid DFT and stability analysis
  Lukas Wittmann         : regularized MP2, r2SCAN double-hybrids, wr2SCAN        
                                                                         
We gratefully acknowledge several colleagues who have allowed us to      
interface, adapt or use parts of their codes:                            
  Ed Valeev, F. Pavosevic, A. Kumar             : LibInt (2-el integral package), F12 methods 
  Garnet Chan, S. Sharma, J. Yang, R. Olivares  : DMRG                   
  Ulf Ekstrom                                   : XCFun DFT Library      
  Mihaly Kallay                                 : mrcc  (arbitrary order and MRCC methods)
  Frank Weinhold                                : gennbo (NPA and NBO analysis)           
  Simon Mueller                                 : openCOSMO-RS                            
  Christopher J. Cramer and Donald G. Truhlar   : smd solvation model                     
  S Lehtola, MJT Oliveira, MAL Marques          : LibXC Library                           
  Liviu Ungur et al                             : ANISO software                          


 Your calculation uses the libint2 library for the computation of 2-el integrals
 For citations please refer to: http://libint.valeyev.net

 Your ORCA version has been built with support for libXC version: 7.0.0
 For citations please refer to: https://libxc.gitlab.io

 This ORCA versions uses:
   CBLAS   interface :  Fast vector & matrix operations
   LAPACKE interface :  Fast linear algebra routines
   SCALAPACK package :  Parallel linear algebra routines
   Shared memory     :  Shared parallel matrices
   BLAS/LAPACK       :  OpenBLAS 0.3.29  USE64BITINT DYNAMIC_ARCH NO_AFFINITY Zen SINGLE_THREADED
        Core in use  :  Zen
   Copyright (c) 2011-2014, The OpenBLAS Project


  ***********************************
  * Starting time: Sat Sep 19 14:44:19 2026
  * Host name:     a1-8
  * Process ID:    1824925
  * Working dir.:  /tmp/lscratch/tns97255/48346191/out/3_SCAN/constrained_opt
  ***********************************

NOTE: MaxCore=5722 MB was set to SCF,MP2,MDCI,CIPSI,MRCI,RASCI and CIS
      => If you want to overwrite this, your respective input block should be placed after the MaxCore statement
Your calculation utilizes the semiempirical GFN2-xTB method
Please cite in your paper:
Bannwarth, C.; Ehlert S.; Grimme, S. J. Chem. Theory Comput. 2019, 15, 1652.
   

================================================================================

================================================================================
                                        WARNINGS
                       Please study these warnings very carefully!
================================================================================


WARNING: Geometry Optimization
  ===> : Switching off AutoStart
         For restart on a previous wavefunction, please use MOREAD

WARNING: Found dipole moment calculation with XTB calculation
  ===> : Switching off dipole moment calculation


================================================================================
                                       INPUT FILE
================================================================================
NAME = opt.inp
|  1> !xtb
|  2> !opt
|  3> %maxcore 5722
|  4> %pal
|  5>     nprocs 8
|  6> end
|  7> 
|  8> %geom
|  9>     constraints 
| 10>      { C 3 C }
| 11>      { C 10 C }
| 12>      { C 15 C }
| 13>     end
| 14> end
| 15> 
| 16> %output
| 17>     jsonpropfile True
| 18>     jsongbwfile True
| 19> end
| 20> 
| 21> * xyz 0 2
| 22> C             2.4965883600000001             0.6481684200000000            -0.1937416100000000
| 23> C             1.2572929100000001            -0.1687493800000000             0.1573122400000000
| 24> C             0.0926785500000000            -0.0301324800000000            -0.4334210300000000
| 25> C            -1.1497528600000000            -0.8404066900000000            -0.0780093900000000
| 26> C            -2.3116052499999999             0.0790657100000000             0.3901788900000000
| 27> H             3.3051132600000002            -0.0013868500000000            -0.5193337700000000
| 28> H             2.2763197200000000             1.3507600500000001            -0.9889649300000000
| 29> H             2.8482521500000000             1.2035986599999999             0.6719591700000001
| 30> H             1.3793801400000001            -0.8985432700000000             0.9451055100000000
| 31> H            -0.0339537600000000             0.7013774699999999            -1.2183844300000000
| 32> H            -1.4747259100000001            -1.4072778100000001            -0.9464507100000000
| 33> H            -0.9050025400000000            -1.5511108800000000             0.7026356600000000
| 34> H            -3.1925351499999999            -0.5083237600000000             0.6249387400000000
| 35> H            -2.0202102499999999             0.6343337999999999             1.2745878500000001
| 36> H            -2.5678393700000002             0.7886270100000000            -0.3884122000000000
| 37> O            -1.4956149100000000            -1.9333534800000001            -2.2436816199999998
| 38> H            -1.5106107900000001            -2.3110150300000001            -3.1749435500000001
| 39> *
| 40> 
| 41>                          ****END OF INPUT****
================================================================================

                       *****************************
                       * Geometry Optimization Run *
                       *****************************

Geometry optimization settings:
Update method            Update   .... BFGS
Choice of coordinates    CoordSys .... (2022) Redundant Internals
Initial Hessian          InHess   .... Almloef's Model
Max. no of cycles        MaxIter  .... 51

Convergence Tolerances:
Energy Change            TolE     ....  5.0000e-06 Eh
Max. Gradient            TolMAXG  ....  3.0000e-04 Eh/bohr
RMS Gradient             TolRMSG  ....  1.0000e-04 Eh/bohr
Max. Displacement        TolMAXD  ....  4.0000e-03 bohr
RMS Displacement         TolRMSD  ....  2.0000e-03 bohr
Strict Convergence                .... False

------------------------------------------------------------------------------
                        ORCA OPTIMIZATION COORDINATE SETUP
------------------------------------------------------------------------------

The optimization will be done in redundant internal coordinates (2022)
Making redundant internal coordinates   ...  (2022 redundants) done
Evaluating the initial hessian          ...  (Almloef) done
Evaluating the coordinates              ...  done
Calculating the B-matrix                .... done
Calculating the G-matrix                .... done
Will constrain atom 3 coordinate 1 
Will constrain atom 3 coordinate 2 
Will constrain atom 3 coordinate 3 
Will constrain atom 10 coordinate 1 
Will constrain atom 10 coordinate 2 
Will constrain atom 10 coordinate 3 
Will constrain atom 15 coordinate 1 
Will constrain atom 15 coordinate 2 
Will constrain atom 15 coordinate 3 
The number of degrees of freedom        ....   75
Storing new coordinates                 .... done

    -----------------------------------------------------------------
                    Redundant Internal Coordinates


    -----------------------------------------------------------------
         Definition                    Initial Value    Approx d2E/dq
    -----------------------------------------------------------------
      1. B(C   1,C   0)                  1.5253         0.380124   
      2. B(C   2,C   1)                  1.3132         0.828438   
      3. B(C   3,C   2)                  1.5253         0.380100   
      4. B(C   4,C   3)                  1.5539         0.342204   
      5. B(H   5,C   0)                  1.0870         0.364044   
      6. B(H   6,C   0)                  1.0838         0.368452   
      7. B(H   7,C   0)                  1.0870         0.364067   
      8. B(H   8,C   1)                  1.0808         0.372482   
      9. B(H   9,C   2)                  1.0804         0.372997   
     10. B(H  10,C   3)                  1.0868         0.364354   
     11. B(H  11,C   3)                  1.0837         0.368529   
     12. B(H  12,C   4)                  1.0845         0.367428   
     13. B(H  13,C   4)                  1.0842         0.367903   
     14. B(H  14,C   4)                  1.0841         0.367950   
     15. B(O  15,H  10)                  1.4000         0.103270   
     16. B(H  16,O  15)                  1.0050         0.440668   
     17. A(H   5,C   0,H   7)          107.6524         0.291840   
     18. A(C   1,C   0,H   7)          110.6848         0.325833   
     19. A(H   6,C   0,H   7)          108.5944         0.292393   
     20. A(C   1,C   0,H   6)          110.5461         0.326475   
     21. A(H   5,C   0,H   6)          108.5890         0.292390   
     22. A(C   1,C   0,H   5)          110.6852         0.325829   
     23. A(C   0,C   1,C   2)          124.0906         0.418839   
     24. A(C   2,C   1,H   8)          119.9566         0.372966   
     25. A(C   0,C   1,H   8)          115.9528         0.327061   
     26. A(C   1,C   2,C   3)          124.1593         0.418834   
     27. A(C   1,C   2,H   9)          120.1481         0.373055   
     28. A(C   3,C   2,H   9)          115.6895         0.327132   
     29. A(C   2,C   3,C   4)          111.4026         0.359015   
     30. A(C   2,C   3,H  10)          109.5395         0.325872   
     31. A(C   4,C   3,H  10)          109.0158         0.320307   
     32. A(C   2,C   3,H  11)          109.4067         0.326483   
     33. A(C   4,C   3,H  11)          109.8700         0.320904   
     34. A(H  10,C   3,H  11)          107.5225         0.292439   
     35. A(C   3,C   4,H  12)          110.6149         0.320747   
     36. A(C   3,C   4,H  13)          110.3580         0.320815   
     37. A(H  12,C   4,H  13)          108.6104         0.292748   
     38. A(C   3,C   4,H  14)          110.3418         0.320822   
     39. A(H  12,C   4,H  14)          108.5397         0.292754   
     40. A(H  13,C   4,H  14)          108.3104         0.292814   
     41. A(C   3,H  10,O  15)          160.2002         0.239763   
     42. L(H  10,O  15,H  16,C   3, 1) 180.0000         0.244559   
     43. L(H  10,O  15,H  16,C   3, 2) 180.0000         0.244559   
     44. D(C   2,C   1,C   0,H   5)   -120.2218         0.010782   
     45. D(C   2,C   1,C   0,H   6)      0.1365         0.010782   
     46. D(H   8,C   1,C   0,H   5)     59.7502         0.010782   
     47. D(H   8,C   1,C   0,H   6)   -179.8915         0.010782   
     48. D(C   2,C   1,C   0,H   7)    120.5013         0.010782   
     49. D(C   3,C   2,C   1,C   0)   -179.6214         0.049978   
     50. D(C   3,C   2,C   1,H   8)      0.4077         0.049978   
     51. D(H   9,C   2,C   1,C   0)     -0.2920         0.049978   
     52. D(H   9,C   2,C   1,H   8)    179.7371         0.049978   
     53. D(C   4,C   3,C   2,C   1)    119.9933         0.010780   
     54. D(C   4,C   3,C   2,H   9)    -59.3633         0.010780   
     55. D(H  10,C   3,C   2,C   1)   -119.3131         0.010780   
     56. D(H  10,C   3,C   2,H   9)     61.3304         0.010780   
     57. D(H  11,C   3,C   2,C   1)     -1.6838         0.010780   
     58. D(H  12,C   4,C   3,C   2)    179.1366         0.010000   
     59. D(H  12,C   4,C   3,H  10)     58.1362         0.010000   
     60. D(H  12,C   4,C   3,H  11)    -59.4557         0.010000   
     61. D(H  13,C   4,C   3,C   2)    -60.6473         0.010000   
     62. D(H  13,C   4,C   3,H  10)    178.3524         0.010000   
     63. D(H  13,C   4,C   3,H  11)     60.7605         0.010000   
     64. D(O  15,H  10,C   3,C   2)      2.8955         0.124996   
     65. D(O  15,H  10,C   3,C   4)    125.0280         0.124996   
     66. D(O  15,H  10,C   3,H  11)   -115.9064         0.124996   
     67. C_Y(C   3)                     -0.8404         1.000000 C 
     68. C_X(C   3)                     -1.1498         1.000000 C 
     69. C_Z(C   3)                     -0.0780         1.000000 C 
     70. C_Z(H  10)                     -0.9465         1.000000 C 
     71. C_X(H  10)                     -1.4747         1.000000 C 
     72. C_Y(H  10)                     -1.4073         1.000000 C 
     73. C_Z(O  15)                     -2.2437         1.000000 C 
     74. C_Y(O  15)                     -1.9334         1.000000 C 
     75. C_X(O  15)                     -1.4956         1.000000 C 
    -----------------------------------------------------------------

Number of atoms                         .... 17
Number of degrees of freedom            .... 66


         *************************************************************
         *                GEOMETRY OPTIMIZATION CYCLE   1            *
         *************************************************************
---------------------------------
CARTESIAN COORDINATES (ANGSTROEM)
---------------------------------
  C     2.496588    0.648168   -0.193742
  C     1.257293   -0.168749    0.157312
  C     0.092679   -0.030132   -0.433421
  C    -1.149753   -0.840407   -0.078009
  C    -2.311605    0.079066    0.390179
  H     3.305113   -0.001387   -0.519334
  H     2.276320    1.350760   -0.988965
  H     2.848252    1.203599    0.671959
  H     1.379380   -0.898543    0.945106
  H    -0.033954    0.701377   -1.218384
  H    -1.474726   -1.407278   -0.946451
  H    -0.905003   -1.551111    0.702636
  H    -3.192535   -0.508324    0.624939
  H    -2.020210    0.634334    1.274588
  H    -2.567839    0.788627   -0.388412
  O    -1.495615   -1.933353   -2.243682
  H    -1.510611   -2.311015   -3.174944

----------------------------
CARTESIAN COORDINATES (A.U.)
----------------------------
  NO LB    ZA    FRAG    MASS        X           Y           Z
   0 C   6.0000    0    12.011    4.717868    1.224861   -0.366119
   1 C   6.0000    0    12.011    2.375939   -0.318890    0.297277
   2 C   6.0000    0    12.011    0.175137   -0.056942   -0.819047
   3 C   6.0000    0    12.011   -2.172718   -1.588138   -0.147416
   4 C   6.0000    0    12.011   -4.368301    0.149413    0.737331
   5 H   1.0000    0     1.008    6.245759   -0.002621   -0.981399
   6 H   1.0000    0     1.008    4.301621    2.552567   -1.868873
   7 H   1.0000    0     1.008    5.382417    2.274472    1.269819
   8 H   1.0000    0     1.008    2.606651   -1.698001    1.785991
   9 H   1.0000    0     1.008   -0.064163    1.325411   -2.302413
  10 H   1.0000    0     1.008   -2.786828   -2.659370   -1.788533
  11 H   1.0000    0     1.008   -1.710207   -2.931175    1.327789
  12 H   1.0000    0     1.008   -6.033017   -0.960593    1.180963
  13 H   1.0000    0     1.008   -3.817644    1.198717    2.408622
  14 H   1.0000    0     1.008   -4.852513    1.490289   -0.733993
  15 O   8.0000    0    15.999   -2.826303   -3.653509   -4.239944
  16 H   1.0000    0     1.008   -2.854641   -4.367185   -5.999774

      -----------------------------------------------------------      
     |                   =====================                   |     
     |                           x T B                           |     
     |                   =====================                   |     
     |                         S. Grimme                         |     
     |          Mulliken Center for Theoretical Chemistry        |     
     |                    University of Bonn                     |     
      -----------------------------------------------------------      

   * xtb version 6.7.1 (edcfbbe) compiled by 'albert@albert-system' on 2024-07-22

   xtb is free software: you can redistribute it and/or modify it under
   the terms of the GNU Lesser General Public License as published by
   the Free Software Foundation, either version 3 of the License, or
   (at your option) any later version.
   
   xtb is distributed in the hope that it will be useful,
   but WITHOUT ANY WARRANTY; without even the implied warranty of
   MERCHANTABILITY or FITNESS FOR A PARTICULAR PURPOSE.  See the
   GNU Lesser General Public License for more details.
   
   Cite this work as:
   * C. Bannwarth, E. Caldeweyher, S. Ehlert, A. Hansen, P. Pracht,
     J. Seibert, S. Spicher, S. Grimme, WIREs Comput. Mol. Sci., 2020, 11,
     e01493. DOI: 10.1002/wcms.1493
   
   for GFN2-xTB:
   * C. Bannwarth, S. Ehlert and S. Grimme., J. Chem. Theory Comput., 2019,
     15, 1652-1671. DOI: 10.1021/acs.jctc.8b01176
   for GFN1-xTB:
   * S. Grimme, C. Bannwarth, P. Shushkov, J. Chem. Theory Comput., 2017,
     13, 1989-2009. DOI: 10.1021/acs.jctc.7b00118
   for GFN0-xTB:
   * P. Pracht, E. Caldeweyher, S. Ehlert, S. Grimme, ChemRxiv, 2019, preprint.
     DOI: 10.26434/chemrxiv.8326202.v1
   for GFN-FF:
   * S. Spicher and S. Grimme, Angew. Chem. Int. Ed., 2020, 59, 15665-15673.
     DOI: 10.1002/anie.202004239
   
   for ALPB and GBSA implicit solvation:
   * S. Ehlert, M. Stahn, S. Spicher, S. Grimme, J. Chem. Theory Comput.,
     2021, 17, 4250-4261. DOI: 10.1021/acs.jctc.1c00471
   
   for ddCOSMO and CPCM-X implicit solvation:
   * M. Stahn, S. Ehlert, S. Grimme, J. Phys. Chem. A,
     2023, XX, XXXX-XXXX. DOI: 10.1021/acs.jpca.3c04382
   
   for DFT-D4:
   * E. Caldeweyher, C. Bannwarth and S. Grimme, J. Chem. Phys., 2017,
     147, 034112. DOI: 10.1063/1.4993215
   * E. Caldeweyher, S. Ehlert, A. Hansen, H. Neugebauer, S. Spicher,
     C. Bannwarth and S. Grimme, J. Chem. Phys., 2019, 150, 154122.
     DOI: 10.1063/1.5090222
   * E. Caldeweyher, J.-M. Mewes, S. Ehlert and S. Grimme, Phys. Chem. Chem. Phys.
     2020, 22, 8499-8512. DOI: 10.1039/D0CP00502A
   
   for sTDA-xTB:
   * S. Grimme and C. Bannwarth, J. Chem. Phys., 2016, 145, 054103.
     DOI: 10.1063/1.4959605
   
   in the mass-spec context:
   * V. Asgeirsson, C. Bauer and S. Grimme, Chem. Sci., 2017, 8, 4879.
     DOI: 10.1039/c7sc00601b
   * J. Koopman and S. Grimme, ACS Omega 2019, 4, 12, 15120-15133.
     DOI: 10.1021/acsomega.9b02011
   
   for metadynamics refer to:
   * S. Grimme, J. Chem. Theory Comput., 2019, 155, 2847-2862
     DOI: 10.1021/acs.jctc.9b00143
   
   for SPH calculations refer to:
   * S. Spicher and S. Grimme, J. Chem. Theory Comput., 2021, 17, 1701-1714
     DOI: 10.1021/acs.jctc.0c01306
   
   for ONIOM refer to:
   * C. Plett, A. Katbashev, S. Ehlert, S. Grimme, M. Bursch,
     Phys. Chem. Chem. Phys., 2023, 25, 17860-17868. DOI: 10.1039/D3CP02178E
   
   for DIPRO refer to:
   * J. Kohn, N. Gildemeister, S. Grimme, D. Fazzi, A. Hansen,
     J. Chem. Phys., 2023, just accepted.
   
   for PTB refer to:
   * S. Grimme, M. Mueller, A. Hansen, J. Chem. Phys., 2023, 158, 124111.
     DOI: 10.1063/5.0137838
   
   with help from (in alphabetical order)
   P. Atkinson, C. Bannwarth, F. Bohle, G. Brandenburg, E. Caldeweyher
   M. Checinski, S. Dohm, S. Ehlert, S. Ehrlich, I. Gerasimov, C. Hölzer
   A. Katbashev, J. Kohn, J. Koopman, C. Lavigne, S. Lehtola, F. März, M. Müller,
   F. Musil, H. Neugebauer, J. Pisarek, C. Plett, P. Pracht, F. Pultar,
   J. Seibert, P. Shushkov, S. Spicher, M. Stahn, M. Steiner, T. Strunk,
   J. Stückrath, T. Rose, and J. Unsleber
   
 * started run on 2026/09/19 at 14:44:21.931     
   ID    Z sym.   atoms
    1    6 C      1-5
    2    1 H      6-15, 17
    3    8 O      16

           -------------------------------------------------
          |                Calculation Setup                |
           -------------------------------------------------

          program call               : /apps/eb/ORCA/6.1.1-gompi-2023b-avx2/bin/otool_xtb opt_XTB.xyz --grad -c 0 -u 1 -P 8 --namespace opt --input opt_XTB.input.tmp --acc 0.200000
          hostname                   : a1-8
          calculation namespace      : opt
          coordinate file            : opt_XTB.xyz
          omp threads                :                     8


molecular fragmentation (1/2 indicates fragments):
11111111111111122
# atoms in fragment 1/2:    15     2
 fragment masses (1/2) :       70.13       17.01
CMA distance (Bohr)    :   6.333
constraining FC (au)   :  0.0500

           -------------------------------------------------
          |                 G F N 2 - x T B                 |
           -------------------------------------------------

        Reference                      10.1021/acs.jctc.8b01176
      * Hamiltonian:
        H0-scaling (s, p, d)           1.850000    2.230000    2.230000
        zeta-weighting                 0.500000
      * Dispersion:
        s8                             2.700000
        a1                             0.520000
        a2                             5.000000
        s9                             5.000000
      * Repulsion:
        kExp                           1.500000    1.000000
        rExp                           1.000000
      * Coulomb:
        alpha                          2.000000
        third order                    shell-resolved
        anisotropic                    true
        a3                             3.000000
        a5                             4.000000
        cn-shift                       1.200000
        cn-exp                         4.000000
        max-rad                        5.000000


          ...................................................
          :                      SETUP                      :
          :.................................................:
          :  # basis functions                  35          :
          :  # atomic orbitals                  35          :
          :  # shells                           23          :
          :  # electrons                        37          :
          :  max. iterations                   250          :
          :  Hamiltonian                  GFN2-xTB          :
          :  restarted?                      false          :
          :  GBSA solvation                  false          :
          :  PC potential                    false          :
          :  electronic temp.          300.0000000     K    :
          :  accuracy                    0.2000000          :
          :  -> integral cutoff          0.3198970E+02      :
          :  -> integral neglect         0.2000000E-08      :
          :  -> SCF convergence          0.2000000E-06 Eh   :
          :  -> wf. convergence          0.2000000E-04 e    :
          :  Broyden damping             0.4000000          :
          :  net charge                          0          :
          :  unpaired electrons                  1          :
          ...................................................

 iter      E             dE          RMSdq      gap      omega  full diag
   1    -20.3238442 -0.203238E+02  0.428E+00    5.27       0.0  T
   2    -20.3887989 -0.649547E-01  0.236E+00    1.40       1.0  T
   3    -20.4336756 -0.448766E-01  0.219E+00    4.77       1.0  T
   4    -20.4298431  0.383241E-02  0.157E+00    4.56       1.0  T
   5    -20.4281597  0.168341E-02  0.162E+00    4.99       1.0  T
   6    -20.4388005 -0.106407E-01  0.142E+00    4.54       1.0  T
   7    -20.4775062 -0.387057E-01  0.714E-01    4.74       1.0  T
   8    -20.4794198 -0.191364E-02  0.656E-01    4.74       1.0  T
   9    -20.4766229  0.279690E-02  0.728E-01    4.77       1.0  T
  10    -20.4875264 -0.109035E-01  0.306E-01    4.75       1.0  T
  11    -20.4458332  0.416933E-01  0.132E+00    4.65       1.0  T
  12    -20.4699543 -0.241212E-01  0.894E-01    4.72       1.0  T
  13    -20.4736729 -0.371861E-02  0.802E-01    4.74       1.0  T
  14    -20.4876272 -0.139543E-01  0.299E-01    4.77       1.0  T
  15    -20.4857768  0.185042E-02  0.405E-01    4.74       1.0  T
  16    -20.4861803 -0.403548E-03  0.368E-01    4.75       1.0  T
  17    -20.4881199 -0.193953E-02  0.179E-01    4.75       1.0  T
  18    -20.4880061  0.113747E-03  0.186E-01    4.77       1.0  T
  19    -20.4882389 -0.232825E-03  0.770E-02    4.76       1.0  T
  20    -20.4883597 -0.120758E-03  0.117E-02    4.77       2.1  T
  21    -20.4883599 -0.172807E-06  0.174E-02    4.78       1.4  T
  22    -20.4883506  0.927069E-05  0.218E-02    4.78       1.1  T
  23    -20.4883571 -0.647162E-05  0.152E-02    4.78       1.6  T
  24    -20.4883605 -0.344974E-05  0.520E-03    4.78       4.7  T
  25    -20.4883606 -0.653091E-07  0.647E-03    4.78       3.7  T
  26    -20.4883608 -0.201769E-06  0.467E-03    4.78       5.2  T
  27    -20.4883609 -0.611851E-07  0.352E-04    4.78      68.9  T
  28    -20.4883608  0.119863E-07  0.715E-04    4.78      33.9  T
  29    -20.4883609 -0.125151E-07  0.584E-05    4.78     415.2  T
  30    -20.4883609  0.248310E-09  0.121E-04    4.78     200.7  T

   *** convergence criteria satisfied after 30 iterations ***

         #    Occupation            Energy/Eh            Energy/eV
      -------------------------------------------------------------
         1        2.0000           -0.6343311             -17.2610
       ...           ...                  ...                  ...
        13        2.0000           -0.4592952             -12.4981
        14        2.0000           -0.4519488             -12.2982
        15        2.0000           -0.4340346             -11.8107
        16        2.0000           -0.4190667             -11.4034
        17        1.9862           -0.3870073             -10.5310
        18        1.9610           -0.3859990             -10.5036
        19        1.0528           -0.3802110             -10.3461 (HOMO)
        20                         -0.2046497              -5.5688 (LUMO)
        21                          0.0466141               1.2684
        22                          0.0852880               2.3208
        23                          0.1074948               2.9251
        24                          0.1160548               3.1580
       ...                                ...                  ...
        35                          0.6480012              17.6330
      -------------------------------------------------------------
                  HL-Gap            0.1755613 Eh            4.7773 eV
             Fermi-level           -0.3376921 Eh           -9.1891 eV

 SCC (total)                   0 d,  0 h,  0 min,  0.022 sec
 SCC setup                      ...        0 min,  0.001 sec (  2.826%)
 Dispersion                     ...        0 min,  0.000 sec (  1.064%)
 classical contributions        ...        0 min,  0.000 sec (  0.729%)
 integral evaluation            ...        0 min,  0.001 sec (  2.608%)
 iterations                     ...        0 min,  0.018 sec ( 85.758%)
 molecular gradient             ...        0 min,  0.001 sec (  5.649%)
 printout                       ...        0 min,  0.000 sec (  1.279%)

         :::::::::::::::::::::::::::::::::::::::::::::::::::::
         ::                     SUMMARY                     ::
         :::::::::::::::::::::::::::::::::::::::::::::::::::::
         :: total energy             -20.206875953632 Eh    ::
         :: gradient norm              0.119940903604 Eh/a0 ::
         :: HOMO-LUMO gap              4.777267333137 eV    ::
         ::.................................................::
         :: SCC energy               -20.488336911569 Eh    ::
         :: -> isotropic ES            0.047392584759 Eh    ::
         :: -> anisotropic ES         -0.002776003353 Eh    ::
         :: -> anisotropic XC          0.011121363294 Eh    ::
         :: -> dispersion             -0.008276477668 Eh    ::
         :: repulsion energy           0.281460957937 Eh    ::
         :: add. restraining           0.000000000000 Eh    ::
         :: total charge               0.000000000000 e     ::
         :::::::::::::::::::::::::::::::::::::::::::::::::::::


Property printout bound to 'properties.out'

           -------------------------------------------------
          | TOTAL ENERGY              -20.206875953632 Eh   |
          | GRADIENT NORM               0.119940903604 Eh/α |
          | HOMO-LUMO GAP               4.777267333137 eV   |
           -------------------------------------------------

------------------------------------------------------------------------
 * finished run on 2026/09/19 at 14:44:21.972     
------------------------------------------------------------------------
 total:
 * wall-time:     0 d,  0 h,  0 min,  0.041 sec
 *  cpu-time:     0 d,  0 h,  0 min,  0.267 sec
 * ratio c/w:     6.577 speedup
 SCF:
 * wall-time:     0 d,  0 h,  0 min,  0.022 sec
 *  cpu-time:     0 d,  0 h,  0 min,  0.150 sec
 * ratio c/w:     6.953 speedup


-------------------------   --------------------
FINAL SINGLE POINT ENERGY       -20.206875953630
-------------------------   --------------------


-------------
DIPOLE MOMENT
-------------
                                X             Y             Z
Total Dipole Moment    :      0.56200       0.60400       0.56600
                        -----------------------------------------
Magnitude (a.u.)       :      1.00051
Magnitude (Debye)      :      2.54309


------------------
CARTESIAN GRADIENT
------------------

   1   C   :    0.015180308    0.008387187   -0.004054893
   2   C   :   -0.034792752   -0.006005308   -0.003687310
   3   C   :    0.041222831    0.011187077    0.004013192
   4   C   :   -0.022990445   -0.047782196   -0.033602474
   5   C   :   -0.008628500    0.011066634    0.011579030
   6   H   :    0.000488767    0.002374311   -0.000626975
   7   H   :    0.001266724   -0.000846528    0.001453511
   8   H   :    0.000470726    0.000591201   -0.002008525
   9   H   :   -0.002169123    0.000359600   -0.000725095
  10   H   :    0.001785231   -0.000769398    0.000014737
  11   H   :   -0.005604139   -0.001502833    0.013532267
  12   H   :   -0.000774695    0.004838630   -0.002616550
  13   H   :    0.000357902    0.001719858    0.000148074
  14   H   :   -0.002488271   -0.000345028   -0.002174491
  15   H   :    0.000335056   -0.001240920    0.001507016
  16   O   :    0.034931766    0.040763543    0.044049473
  17   H   :   -0.018591385   -0.022795832   -0.026800989

Difference to translation invariance:
           :    0.0000000000    0.0000000000    0.0000000000

Difference to rotation invariance:
           :   -0.0000000328    0.0000000470    0.0000000007

Norm of the Cartesian gradient     ...    0.1199409036
RMS gradient                       ...    0.0167950859
MAX gradient                       ...    0.0477821963
------------------------------------------------------------------------------
                         ORCA GEOMETRY RELAXATION STEP
------------------------------------------------------------------------------

Reading the OPT-File                    .... done
Getting information on internals        .... done
Copying old internal coords+grads       .... done
Making the new internal coordinates     .... (2022 redundants) done
Validating the new internal coordinates .... (2022 redundants) done
Calculating the B-matrix                .... done
Calculating the G,G- and P matrices     .... done
Transforming gradient to internals      .... done
Projecting the internal gradient        .... done
Number of atoms                         ....  17
Number of internal coordinates          ....  75
Current Energy                          ....   -20.206875954 Eh
Current gradient norm                   ....     0.119940904 Eh/bohr
Maximum allowed component of the step   ....  0.300
Current trust radius                    ....  0.300
Evaluating the initial hessian          ....  (Almloef) done
Projecting the Hessian                  .... done
Forming the augmented Hessian           .... done
Diagonalizing the augmented Hessian     .... done
Last element of RFO vector              ....  0.972594910
Lowest eigenvalues of augmented Hessian:
 -0.014377633  0.010001089  0.010781723  0.011087224  0.029228519
Length of the computed step             ....  0.239057613
The final length of the internal step   ....  0.239057613
Converting the step to Cartesian space:
 Initial RMS(Int)=    0.0276039954
Transforming coordinates:
 Iter   0:  RMS(Cart)=    0.0725249202 RMS(Int)=    0.0272935343
 Iter   5:  RMS(Cart)=    0.0000025650 RMS(Int)=    0.0000024941
 Iter  10:  RMS(Cart)=    0.0000002599 RMS(Int)=    0.0000003895
Imposing constraints:
 Iter   0:  RMS(Cart)=    0.0000000000 RMS(Int)=    0.0000000000
CONVERGED
done
Storing new coordinates                 .... done

                                .--------------------.
          ----------------------|Geometry convergence|-------------------------
          Item                value                   Tolerance       Converged
          ---------------------------------------------------------------------
          RMS gradient        0.0081539794            0.0001000000      NO
          MAX gradient        0.0402540359            0.0003000000      NO
          RMS step            0.0276039954            0.0020000000      NO
          MAX step            0.1554589750            0.0040000000      NO
          -------------------------------------------------------------------------
          ........................................................
          Max(Bonds)      0.0392      Max(Angles)    8.91
          Max(Dihed)        3.82      Max(Improp)    0.00
          ---------------------------------------------------------------------

The optimization has not yet converged - more geometry cycles are needed


    ---------------------------------------------------------------------------
                         Redundant Internal Coordinates
                            (Angstroem and degrees)

        Definition                    Value    dE/dq     Step     New-Value
    ----------------------------------------------------------------------------
     1. B(C   1,C   0)                1.5253  0.020975 -0.0281    1.4971   
     2. B(C   2,C   1)                1.3132 -0.022196  0.0139    1.3271   
     3. B(C   3,C   2)                1.5253  0.028530 -0.0383    1.4870   
     4. B(C   4,C   3)                1.5539  0.017754 -0.0263    1.5275   
     5. B(H   5,C   0)                1.0870 -0.000867  0.0012    1.0882   
     6. B(H   6,C   0)                1.0838 -0.001873  0.0026    1.0863   
     7. B(H   7,C   0)                1.0870 -0.001145  0.0016    1.0886   
     8. B(H   8,C   1)                1.0808 -0.001016  0.0014    1.0822   
     9. B(H   9,C   2)                1.0804 -0.000741  0.0010    1.0814   
    10. B(H  10,C   3)                1.0868 -0.019827  0.0000    1.0868   
    11. B(H  11,C   3)                1.0837 -0.005233  0.0072    1.0909   
    12. B(H  12,C   4)                1.0845 -0.001190  0.0016    1.0862   
    13. B(H  13,C   4)                1.0842 -0.002619  0.0036    1.0878   
    14. B(H  14,C   4)                1.0841 -0.001974  0.0027    1.0869   
    15. B(O  15,H  10)                1.4000 -0.009752 -0.0000    1.4000   
    16. B(H  16,O  15)                1.0050  0.033677 -0.0392    0.9659   
    17. A(H   5,C   0,H   7)          107.65 -0.001305    0.11    107.77   
    18. A(C   1,C   0,H   7)          110.68  0.001790   -0.34    110.35   
    19. A(H   6,C   0,H   7)          108.59 -0.001865    0.41    109.00   
    20. A(C   1,C   0,H   6)          110.55  0.000022    0.04    110.58   
    21. A(H   5,C   0,H   6)          108.59 -0.001843    0.37    108.96   
    22. A(C   1,C   0,H   5)          110.69  0.003017   -0.56    110.13   
    23. A(C   0,C   1,C   2)          124.09 -0.000067    0.02    124.11   
    24. A(C   2,C   1,H   8)          119.96 -0.002065    0.32    120.28   
    25. A(C   0,C   1,H   8)          115.95  0.002132   -0.34    115.61   
    26. A(C   1,C   2,C   3)          124.16  0.000369   -0.04    124.12   
    27. A(C   1,C   2,H   9)          120.15 -0.001736    0.26    120.41   
    28. A(C   3,C   2,H   9)          115.69  0.001365   -0.22    115.47   
    29. A(C   2,C   3,C   4)          111.40 -0.001738    0.38    111.79   
    30. A(C   2,C   3,H  10)          109.54 -0.001619    0.09    109.63   
    31. A(C   4,C   3,H  10)          109.02  0.005144   -1.49    107.53   
    32. A(C   2,C   3,H  11)          109.41  0.000109    0.47    109.87   
    33. A(C   4,C   3,H  11)          109.87 -0.002086    0.72    110.59   
    34. A(H  10,C   3,H  11)          107.52  0.000269   -0.19    107.33   
    35. A(C   3,C   4,H  12)          110.61  0.001261   -0.25    110.37   
    36. A(C   3,C   4,H  13)          110.36  0.002810   -0.51    109.85   
    37. A(H  12,C   4,H  13)          108.61 -0.001749    0.23    108.84   
    38. A(C   3,C   4,H  14)          110.34 -0.000609    0.14    110.48   
    39. A(H  12,C   4,H  14)          108.54 -0.000945    0.21    108.75   
    40. A(H  13,C   4,H  14)          108.31 -0.000890    0.20    108.51   
    41. A(C   3,H  10,O  15)          160.20 -0.003156   -0.00    160.20   
    42. L(H  10,O  15,H  16,C   3, 1) 180.00  0.040254   -8.91    171.09   
    43. L(H  10,O  15,H  16,C   3, 2) 180.00  0.000068   -0.02    179.98   
    44. D(C   2,C   1,C   0,H   5)   -120.22  0.000563   -0.21   -120.43   
    45. D(C   2,C   1,C   0,H   6)      0.14  0.000244   -0.09      0.05   
    46. D(H   8,C   1,C   0,H   5)     59.75  0.000204   -0.01     59.74   
    47. D(H   8,C   1,C   0,H   6)   -179.89 -0.000116    0.12   -179.78   
    48. D(C   2,C   1,C   0,H   7)    120.50 -0.000906    0.22    120.72   
    49. D(C   3,C   2,C   1,C   0)   -179.62 -0.000513    0.50   -179.12   
    50. D(C   3,C   2,C   1,H   8)      0.41 -0.000141    0.29      0.69   
    51. D(H   9,C   2,C   1,C   0)     -0.29 -0.000718    0.48      0.19   
    52. D(H   9,C   2,C   1,H   8)    179.74 -0.000346    0.26    180.00   
    53. D(C   4,C   3,C   2,C   1)    119.99 -0.003794    3.81    123.80   
    54. D(C   4,C   3,C   2,H   9)    -59.36 -0.003579    3.82    -55.54   
    55. D(H  10,C   3,C   2,C   1)   -119.31  0.000452    2.25   -117.07   
    56. D(H  10,C   3,C   2,H   9)     61.33  0.000667    2.26     63.60   
    57. D(H  11,C   3,C   2,C   1)     -1.68 -0.000103    2.34      0.65   
    58. D(H  12,C   4,C   3,C   2)    179.14  0.000756   -0.74    178.40   
    59. D(H  12,C   4,C   3,H  10)     58.14  0.000468   -0.11     58.03   
    60. D(H  12,C   4,C   3,H  11)    -59.46 -0.001676    0.59    -58.87   
    61. D(H  13,C   4,C   3,C   2)    -60.65  0.001218   -0.95    -61.59   
    62. D(H  13,C   4,C   3,H  10)    178.35  0.000931   -0.31    178.04   
    63. D(H  13,C   4,C   3,H  11)     60.76 -0.001214    0.38     61.14   
    64. D(O  15,H  10,C   3,C   2)      2.90 -0.000315    0.34      3.23   
    65. D(O  15,H  10,C   3,C   4)    125.03 -0.000209   -0.08    124.95   
    66. D(O  15,H  10,C   3,H  11)   -115.91  0.000298   -0.16   -116.07   
    67. C_Y(C   3)                     -0.84 -0.007527   -0.00     -0.84 C 
    68. C_X(C   3)                     -1.15 -0.002372    0.00     -1.15 C 
    69. C_Z(C   3)                     -0.08 -0.014932    0.00     -0.08 C 
    70. C_Z(H  10)                     -0.95  0.003225    0.00     -0.95 C 
    71. C_X(H  10)                     -1.47  0.000030    0.00     -1.47 C 
    72. C_Y(H  10)                     -1.41  0.001293   -0.00     -1.41 C 
    73. C_Z(O  15)                     -2.24  0.011708    0.00     -2.24 C 
    74. C_Y(O  15)                     -1.93  0.006234   -0.00     -1.93 C 
    75. C_X(O  15)                     -1.50  0.002341   -0.00     -1.50 C 
    ----------------------------------------------------------------------------

Geometry step timings:
Preparation and reading OPT file:      0.000 s ( 0.507 %)
Internal coordinates            :      0.000 s ( 0.542 %)
B/P matrices and projection     :      0.002 s (27.748 %)
Hessian update/contruction      :      0.001 s ( 9.069 %)
Making the step                 :      0.001 s ( 9.750 %)
Converting the step to Cartesian:      0.000 s ( 2.691 %)
Storing new data                :      0.000 s ( 0.454 %)
Checking convergence            :      0.000 s ( 0.524 %)
Final printing                  :      0.003 s (48.698 %)
Total time                      :      0.006 s

Time for energy+gradient        :      0.104 s
Time for complete geometry iter :      0.154 s

         *************************************************************
         *                GEOMETRY OPTIMIZATION CYCLE   2            *
         *************************************************************
---------------------------------
CARTESIAN COORDINATES (ANGSTROEM)
---------------------------------
  C     2.456150    0.606057   -0.194805
  C     1.246040   -0.209064    0.140783
  C     0.056841   -0.043404   -0.424609
  C    -1.149753   -0.840407   -0.078009
  C    -2.313595    0.050893    0.351410
  H     3.252651   -0.039123   -0.560337
  H     2.220758    1.342910   -0.957556
  H     2.824796    1.119044    0.691782
  H     1.389049   -0.968775    0.898092
  H    -0.088515    0.715080   -1.181624
  H    -1.474726   -1.407278   -0.946451
  H    -0.906956   -1.558498    0.706549
  H    -3.189992   -0.551721    0.571731
  H    -2.040002    0.611826    1.242358
  H    -2.563614    0.755966   -0.437025
  O    -1.495615   -1.933353   -2.243682
  H    -1.383995   -2.217792   -3.159951

----------------------------
CARTESIAN COORDINATES (A.U.)
----------------------------
  NO LB    ZA    FRAG    MASS        X           Y           Z
   0 C   6.0000    0    12.011    4.641451    1.145281   -0.368128
   1 C   6.0000    0    12.011    2.354674   -0.395074    0.266041
   2 C   6.0000    0    12.011    0.107414   -0.082022   -0.802394
   3 C   6.0000    0    12.011   -2.172718   -1.588138   -0.147416
   4 C   6.0000    0    12.011   -4.372060    0.096174    0.664068
   5 H   1.0000    0     1.008    6.146619   -0.073932   -1.058883
   6 H   1.0000    0     1.008    4.196625    2.537732   -1.809518
   7 H   1.0000    0     1.008    5.338091    2.114687    1.307278
   8 H   1.0000    0     1.008    2.624922   -1.830720    1.697148
   9 H   1.0000    0     1.008   -0.167269    1.351305   -2.232945
  10 H   1.0000    0     1.008   -2.786828   -2.659370   -1.788533
  11 H   1.0000    0     1.008   -1.713898   -2.945134    1.335184
  12 H   1.0000    0     1.008   -6.028210   -1.042602    1.080414
  13 H   1.0000    0     1.008   -3.855045    1.156184    2.347717
  14 H   1.0000    0     1.008   -4.844529    1.428569   -0.825858
  15 O   8.0000    0    15.999   -2.826303   -3.653509   -4.239944
  16 H   1.0000    0     1.008   -2.615372   -4.191019   -5.971443

      -----------------------------------------------------------      
     |                   =====================                   |     
     |                           x T B                           |     
     |                   =====================                   |     
     |                         S. Grimme                         |     
     |          Mulliken Center for Theoretical Chemistry        |     
     |                    University of Bonn                     |     
      -----------------------------------------------------------      

   * xtb version 6.7.1 (edcfbbe) compiled by 'albert@albert-system' on 2024-07-22

   xtb is free software: you can redistribute it and/or modify it under
   the terms of the GNU Lesser General Public License as published by
   the Free Software Foundation, either version 3 of the License, or
   (at your option) any later version.
   
   xtb is distributed in the hope that it will be useful,
   but WITHOUT ANY WARRANTY; without even the implied warranty of
   MERCHANTABILITY or FITNESS FOR A PARTICULAR PURPOSE.  See the
   GNU Lesser General Public License for more details.
   
   Cite this work as:
   * C. Bannwarth, E. Caldeweyher, S. Ehlert, A. Hansen, P. Pracht,
     J. Seibert, S. Spicher, S. Grimme, WIREs Comput. Mol. Sci., 2020, 11,
     e01493. DOI: 10.1002/wcms.1493
   
   for GFN2-xTB:
   * C. Bannwarth, S. Ehlert and S. Grimme., J. Chem. Theory Comput., 2019,
     15, 1652-1671. DOI: 10.1021/acs.jctc.8b01176
   for GFN1-xTB:
   * S. Grimme, C. Bannwarth, P. Shushkov, J. Chem. Theory Comput., 2017,
     13, 1989-2009. DOI: 10.1021/acs.jctc.7b00118
   for GFN0-xTB:
   * P. Pracht, E. Caldeweyher, S. Ehlert, S. Grimme, ChemRxiv, 2019, preprint.
     DOI: 10.26434/chemrxiv.8326202.v1
   for GFN-FF:
   * S. Spicher and S. Grimme, Angew. Chem. Int. Ed., 2020, 59, 15665-15673.
     DOI: 10.1002/anie.202004239
   
   for ALPB and GBSA implicit solvation:
   * S. Ehlert, M. Stahn, S. Spicher, S. Grimme, J. Chem. Theory Comput.,
     2021, 17, 4250-4261. DOI: 10.1021/acs.jctc.1c00471
   
   for ddCOSMO and CPCM-X implicit solvation:
   * M. Stahn, S. Ehlert, S. Grimme, J. Phys. Chem. A,
     2023, XX, XXXX-XXXX. DOI: 10.1021/acs.jpca.3c04382
   
   for DFT-D4:
   * E. Caldeweyher, C. Bannwarth and S. Grimme, J. Chem. Phys., 2017,
     147, 034112. DOI: 10.1063/1.4993215
   * E. Caldeweyher, S. Ehlert, A. Hansen, H. Neugebauer, S. Spicher,
     C. Bannwarth and S. Grimme, J. Chem. Phys., 2019, 150, 154122.
     DOI: 10.1063/1.5090222
   * E. Caldeweyher, J.-M. Mewes, S. Ehlert and S. Grimme, Phys. Chem. Chem. Phys.
     2020, 22, 8499-8512. DOI: 10.1039/D0CP00502A
   
   for sTDA-xTB:
   * S. Grimme and C. Bannwarth, J. Chem. Phys., 2016, 145, 054103.
     DOI: 10.1063/1.4959605
   
   in the mass-spec context:
   * V. Asgeirsson, C. Bauer and S. Grimme, Chem. Sci., 2017, 8, 4879.
     DOI: 10.1039/c7sc00601b
   * J. Koopman and S. Grimme, ACS Omega 2019, 4, 12, 15120-15133.
     DOI: 10.1021/acsomega.9b02011
   
   for metadynamics refer to:
   * S. Grimme, J. Chem. Theory Comput., 2019, 155, 2847-2862
     DOI: 10.1021/acs.jctc.9b00143
   
   for SPH calculations refer to:
   * S. Spicher and S. Grimme, J. Chem. Theory Comput., 2021, 17, 1701-1714
     DOI: 10.1021/acs.jctc.0c01306
   
   for ONIOM refer to:
   * C. Plett, A. Katbashev, S. Ehlert, S. Grimme, M. Bursch,
     Phys. Chem. Chem. Phys., 2023, 25, 17860-17868. DOI: 10.1039/D3CP02178E
   
   for DIPRO refer to:
   * J. Kohn, N. Gildemeister, S. Grimme, D. Fazzi, A. Hansen,
     J. Chem. Phys., 2023, just accepted.
   
   for PTB refer to:
   * S. Grimme, M. Mueller, A. Hansen, J. Chem. Phys., 2023, 158, 124111.
     DOI: 10.1063/5.0137838
   
   with help from (in alphabetical order)
   P. Atkinson, C. Bannwarth, F. Bohle, G. Brandenburg, E. Caldeweyher
   M. Checinski, S. Dohm, S. Ehlert, S. Ehrlich, I. Gerasimov, C. Hölzer
   A. Katbashev, J. Kohn, J. Koopman, C. Lavigne, S. Lehtola, F. März, M. Müller,
   F. Musil, H. Neugebauer, J. Pisarek, C. Plett, P. Pracht, F. Pultar,
   J. Seibert, P. Shushkov, S. Spicher, M. Stahn, M. Steiner, T. Strunk,
   J. Stückrath, T. Rose, and J. Unsleber
   
 * started run on 2026/09/19 at 14:44:22.088     
   ID    Z sym.   atoms
    1    6 C      1-5
    2    1 H      6-15, 17
    3    8 O      16

           -------------------------------------------------
          |                Calculation Setup                |
           -------------------------------------------------

          program call               : /apps/eb/ORCA/6.1.1-gompi-2023b-avx2/bin/otool_xtb opt_XTB.xyz --grad -c 0 -u 1 -P 8 --namespace opt --input opt_XTB.input.tmp --acc 0.200000
          hostname                   : a1-8
          calculation namespace      : opt
          coordinate file            : opt_XTB.xyz
          omp threads                :                     8


molecular fragmentation (1/2 indicates fragments):
11111111111111122
# atoms in fragment 1/2:    15     2
 fragment masses (1/2) :       70.13       17.01
CMA distance (Bohr)    :   6.264
constraining FC (au)   :  0.0500

           -------------------------------------------------
          |                 G F N 2 - x T B                 |
           -------------------------------------------------

        Reference                      10.1021/acs.jctc.8b01176
      * Hamiltonian:
        H0-scaling (s, p, d)           1.850000    2.230000    2.230000
        zeta-weighting                 0.500000
      * Dispersion:
        s8                             2.700000
        a1                             0.520000
        a2                             5.000000
        s9                             5.000000
      * Repulsion:
        kExp                           1.500000    1.000000
        rExp                           1.000000
      * Coulomb:
        alpha                          2.000000
        third order                    shell-resolved
        anisotropic                    true
        a3                             3.000000
        a5                             4.000000
        cn-shift                       1.200000
        cn-exp                         4.000000
        max-rad                        5.000000

q/qsh data taken from xtbrestart
CAMM data taken from xtbrestart

          ...................................................
          :                      SETUP                      :
          :.................................................:
          :  # basis functions                  35          :
          :  # atomic orbitals                  35          :
          :  # shells                           23          :
          :  # electrons                        37          :
          :  max. iterations                   250          :
          :  Hamiltonian                  GFN2-xTB          :
          :  restarted?                       true          :
          :  GBSA solvation                  false          :
          :  PC potential                    false          :
          :  electronic temp.          300.0000000     K    :
          :  accuracy                    0.2000000          :
          :  -> integral cutoff          0.3198970E+02      :
          :  -> integral neglect         0.2000000E-08      :
          :  -> SCF convergence          0.2000000E-06 Eh   :
          :  -> wf. convergence          0.2000000E-04 e    :
          :  Broyden damping             0.4000000          :
          :  net charge                          0          :
          :  unpaired electrons                  1          :
          ...................................................

 iter      E             dE          RMSdq      gap      omega  full diag
   1    -20.5022628 -0.205023E+02  0.546E-01    4.49       0.0  T
   2    -20.4754162  0.268467E-01  0.128E+00    4.02       1.0  T
   3    -20.5064361 -0.310199E-01  0.172E-01    4.45       1.0  T
   4    -20.5063981  0.379699E-04  0.704E-02    4.47       1.0  T
   5    -20.5064484 -0.503364E-04  0.322E-02    4.44       1.0  T
   6    -20.5064625 -0.141063E-04  0.976E-03    4.45       2.5  T
   7    -20.5064633 -0.759598E-06  0.477E-03    4.45       5.1  T
   8    -20.5064635 -0.219106E-06  0.162E-03    4.45      15.0  T
   9    -20.5064635 -0.570699E-08  0.842E-04    4.45      28.8  T
  10    -20.5064635 -0.611945E-08  0.296E-04    4.45      81.9  T
  11    -20.5064635 -0.106260E-08  0.571E-05    4.45     425.1  T
  12    -20.5064635  0.159126E-10  0.498E-05    4.45     487.5  T

   *** convergence criteria satisfied after 12 iterations ***

         #    Occupation            Energy/Eh            Energy/eV
      -------------------------------------------------------------
         1        2.0000           -0.6368816             -17.3304
       ...           ...                  ...                  ...
        13        2.0000           -0.4609112             -12.5420
        14        2.0000           -0.4514420             -12.2844
        15        2.0000           -0.4363871             -11.8747
        16        2.0000           -0.4207493             -11.4492
        17        2.0000           -0.3889361             -10.5835
        18        1.9996           -0.3852344             -10.4828
        19        1.0004           -0.3703306             -10.0772 (HOMO)
        20                         -0.2067390              -5.6257 (LUMO)
        21                          0.0842377               2.2922
        22                          0.1086212               2.9557
        23                          0.1292230               3.5163
        24                          0.1379167               3.7529
       ...                                ...                  ...
        35                          0.6216507              16.9160
      -------------------------------------------------------------
                  HL-Gap            0.1635916 Eh            4.4516 eV
             Fermi-level           -0.3331538 Eh           -9.0656 eV

 SCC (total)                   0 d,  0 h,  0 min,  0.013 sec
 SCC setup                      ...        0 min,  0.001 sec (  4.759%)
 Dispersion                     ...        0 min,  0.000 sec (  1.780%)
 classical contributions        ...        0 min,  0.000 sec (  1.108%)
 integral evaluation            ...        0 min,  0.001 sec (  3.824%)
 iterations                     ...        0 min,  0.011 sec ( 79.420%)
 molecular gradient             ...        0 min,  0.001 sec (  7.541%)
 printout                       ...        0 min,  0.000 sec (  1.372%)

         :::::::::::::::::::::::::::::::::::::::::::::::::::::
         ::                     SUMMARY                     ::
         :::::::::::::::::::::::::::::::::::::::::::::::::::::
         :: total energy             -20.218731422754 Eh    ::
         :: gradient norm              0.080298159723 Eh/a0 ::
         :: HOMO-LUMO gap              4.451554509744 eV    ::
         ::.................................................::
         :: SCC energy               -20.506438440148 Eh    ::
         :: -> isotropic ES            0.048670066948 Eh    ::
         :: -> anisotropic ES         -0.003446742525 Eh    ::
         :: -> anisotropic XC          0.010489437121 Eh    ::
         :: -> dispersion             -0.008351247357 Eh    ::
         :: repulsion energy           0.287707017393 Eh    ::
         :: add. restraining           0.000000000000 Eh    ::
         :: total charge               0.000000000269 e     ::
         :::::::::::::::::::::::::::::::::::::::::::::::::::::


Property printout bound to 'properties.out'

           -------------------------------------------------
          | TOTAL ENERGY              -20.218731422754 Eh   |
          | GRADIENT NORM               0.080298159723 Eh/α |
          | HOMO-LUMO GAP               4.451554509744 eV   |
           -------------------------------------------------

------------------------------------------------------------------------
 * finished run on 2026/09/19 at 14:44:22.134     
------------------------------------------------------------------------
 total:
 * wall-time:     0 d,  0 h,  0 min,  0.045 sec
 *  cpu-time:     0 d,  0 h,  0 min,  0.306 sec
 * ratio c/w:     6.791 speedup
 SCF:
 * wall-time:     0 d,  0 h,  0 min,  0.013 sec
 *  cpu-time:     0 d,  0 h,  0 min,  0.099 sec
 * ratio c/w:     7.357 speedup


-------------------------   --------------------
FINAL SINGLE POINT ENERGY       -20.218731422750
-------------------------   --------------------


-------------
DIPOLE MOMENT
-------------
                                X             Y             Z
Total Dipole Moment    :      0.62900       0.66200       0.59000
                        -----------------------------------------
Magnitude (a.u.)       :      1.08719
Magnitude (Debye)      :      2.76342


------------------
CARTESIAN GRADIENT
------------------

   1   C   :    0.005316885    0.001836856   -0.000771609
   2   C   :   -0.011675845   -0.001821260    0.000487445
   3   C   :    0.014080353    0.005370526    0.000157261
   4   C   :   -0.018434683   -0.030332417   -0.036008110
   5   C   :    0.000289886    0.004329536    0.005833201
   6   H   :   -0.000549673    0.000718095   -0.000219674
   7   H   :   -0.000373352   -0.000402273    0.000290082
   8   H   :   -0.000523778    0.000088088   -0.000634776
   9   H   :    0.000090878    0.000269945    0.000105824
  10   H   :   -0.000423580   -0.001066893   -0.000586845
  11   H   :   -0.006152973    0.003129204    0.020488701
  12   H   :    0.000735427    0.002824135    0.000373459
  13   H   :    0.000659208   -0.000183982   -0.000186811
  14   H   :   -0.000277481   -0.000285391   -0.000833063
  15   H   :    0.000517495   -0.000507862   -0.000119390
  16   O   :    0.034891213    0.030076388    0.016781337
  17   H   :   -0.018169980   -0.014042694   -0.005157032

Difference to translation invariance:
           :   -0.0000000000    0.0000000000    0.0000000000

Difference to rotation invariance:
           :    0.0000001865   -0.0000002523    0.0000001022

Norm of the Cartesian gradient     ...    0.0802981597
RMS gradient                       ...    0.0112439914
MAX gradient                       ...    0.0360081101
------------------------------------------------------------------------------
                         ORCA GEOMETRY RELAXATION STEP
------------------------------------------------------------------------------

Reading the OPT-File                    .... done
Getting information on internals        .... done
Copying old internal coords+grads       .... done
Making the new internal coordinates     .... (2022 redundants) done
Validating the new internal coordinates .... (2022 redundants) done
Calculating the B-matrix                .... done
Calculating the G,G- and P matrices     .... done
Transforming gradient to internals      .... done
Projecting the internal gradient        .... done
Number of atoms                         ....  17
Number of internal coordinates          ....  75
Current Energy                          ....   -20.218731423 Eh
Current gradient norm                   ....     0.080298160 Eh/bohr
Maximum allowed component of the step   ....  0.300
Current trust radius                    ....  0.300
Updating the Hessian (BFGS)             .... done
Forming the augmented Hessian           .... done
Diagonalizing the augmented Hessian     .... done
Last element of RFO vector              ....  0.895301649
Lowest eigenvalues of augmented Hessian:
 -0.021034336  0.010001341  0.010781724  0.011165736  0.029229393
Length of the computed step             ....  0.497553408
Warning: the length of the step is outside the trust region - taking restricted step instead
The input lambda is                     ....     0.008995
   iter:   5  x=   -0.002161  g=  184.495752 f(x)=     0.936270
   iter:  10  x=   -0.074775  g=    1.379060 f(x)=     0.005120
The output lambda is                    ....    -0.074937 (14 iterations)
The final length of the internal step   ....  0.300000000
Converting the step to Cartesian space:
 Initial RMS(Int)=    0.0346410162
Transforming coordinates:
 Iter   0:  RMS(Cart)=    0.0846641072 RMS(Int)=    0.0342693572
 Iter   5:  RMS(Cart)=    0.0000533773 RMS(Int)=    0.0000392364
 Iter  10:  RMS(Cart)=    0.0000009356 RMS(Int)=    0.0000007960
 Iter  15:  RMS(Cart)=    0.0000001751 RMS(Int)=    0.0000001491
Imposing constraints:
 Iter   0:  RMS(Cart)=    0.0000000000 RMS(Int)=    0.0000000000
CONVERGED
done
Storing new coordinates                 .... done
The predicted energy change is          ....    -0.009917245
Previously predicted energy change      ....    -0.007599647
Actually observed energy change         ....    -0.011855469
Ratio of predicted to observed change   ....     1.560002587
New trust radius                        ....     0.200000000

                                .--------------------.
          ----------------------|Geometry convergence|-------------------------
          Item                value                   Tolerance       Converged
          ---------------------------------------------------------------------
          Energy change      -0.0118554691            0.0000050000      NO
          RMS gradient        0.0051067919            0.0001000000      NO
          MAX gradient        0.0410486153            0.0003000000      NO
          RMS step            0.0346410162            0.0020000000      NO
          MAX step            0.2716100667            0.0040000000      NO
          -------------------------------------------------------------------------
          ........................................................
          Max(Bonds)      0.0303      Max(Angles)   15.56
          Max(Dihed)        2.34      Max(Improp)    0.00
          ---------------------------------------------------------------------

The optimization has not yet converged - more geometry cycles are needed


    ---------------------------------------------------------------------------
                         Redundant Internal Coordinates
                            (Angstroem and degrees)

        Definition                    Value    dE/dq     Step     New-Value
    ----------------------------------------------------------------------------
     1. B(C   1,C   0)                1.4971  0.004648 -0.0202    1.4769   
     2. B(C   2,C   1)                1.3271 -0.007315  0.0134    1.3406   
     3. B(C   3,C   2)                1.4870  0.007771 -0.0303    1.4567   
     4. B(C   4,C   3)                1.5275  0.002370 -0.0152    1.5123   
     5. B(H   5,C   0)                1.0882 -0.000754  0.0020    1.0903   
     6. B(H   6,C   0)                1.0863 -0.000396  0.0018    1.0882   
     7. B(H   7,C   0)                1.0886 -0.000653  0.0020    1.0906   
     8. B(H   8,C   1)                1.0822 -0.000103  0.0008    1.0829   
     9. B(H   9,C   2)                1.0814 -0.000281  0.0010    1.0824   
    10. B(H  10,C   3)                1.0868 -0.022028  0.0000    1.0868   
    11. B(H  11,C   3)                1.0909 -0.001427  0.0057    1.0966   
    12. B(H  12,C   4)                1.0862 -0.000468  0.0016    1.0878   
    13. B(H  13,C   4)                1.0878 -0.000899  0.0032    1.0910   
    14. B(H  14,C   4)                1.0869 -0.000362  0.0018    1.0887   
    15. B(O  15,H  10)                1.4000 -0.005717 -0.0000    1.4000   
    16. B(H  16,O  15)                0.9659  0.006928 -0.0279    0.9380   
    17. A(H   5,C   0,H   7)          107.76  0.000371   -0.12    107.64   
    18. A(C   1,C   0,H   7)          110.35  0.000126   -0.17    110.18   
    19. A(H   6,C   0,H   7)          109.00 -0.000090    0.22    109.22   
    20. A(C   1,C   0,H   6)          110.58 -0.001052    0.30    110.88   
    21. A(H   5,C   0,H   6)          108.96 -0.000049    0.18    109.14   
    22. A(C   1,C   0,H   5)          110.13  0.000722   -0.40    109.72   
    23. A(C   0,C   1,C   2)          124.11 -0.001324    0.28    124.39   
    24. A(C   2,C   1,H   8)          120.28  0.000834   -0.04    120.23   
    25. A(C   0,C   1,H   8)          115.61  0.000490   -0.24    115.38   
    26. A(C   1,C   2,C   3)          124.12 -0.001324    0.25    124.37   
    27. A(C   1,C   2,H   9)          120.41  0.001400   -0.19    120.22   
    28. A(C   3,C   2,H   9)          115.47 -0.000079   -0.06    115.41   
    29. A(C   2,C   3,C   4)          111.78 -0.002904    1.02    112.80   
    30. A(C   2,C   3,H  10)          109.63 -0.001364    0.39    110.02   
    31. A(C   4,C   3,H  10)          107.53  0.004577   -2.04    105.49   
    32. A(C   2,C   3,H  11)          109.87  0.000151    0.47    110.33   
    33. A(C   4,C   3,H  11)          110.58 -0.001204    0.74    111.32   
    34. A(H  10,C   3,H  11)          107.33  0.000973   -0.68    106.65   
    35. A(C   3,C   4,H  12)          110.37 -0.000783    0.10    110.47   
    36. A(C   3,C   4,H  13)          109.85  0.000618   -0.35    109.50   
    37. A(H  12,C   4,H  13)          108.84  0.000234    0.01    108.85   
    38. A(C   3,C   4,H  14)          110.48 -0.000878    0.28    110.76   
    39. A(H  12,C   4,H  14)          108.75  0.000368   -0.01    108.74   
    40. A(H  13,C   4,H  14)          108.51  0.000475   -0.04    108.47   
    41. A(C   3,H  10,O  15)          160.20 -0.003664   -0.00    160.20   
    42. L(H  10,O  15,H  16,C   3, 1) 171.09  0.041049  -15.56    155.53   
    43. L(H  10,O  15,H  16,C   3, 2) 179.99  0.000114   -0.04    179.95   
    44. D(C   2,C   1,C   0,H   5)   -120.43  0.000378   -0.21   -120.64   
    45. D(C   2,C   1,C   0,H   6)      0.05  0.000107   -0.05     -0.00   
    46. D(H   8,C   1,C   0,H   5)     59.74  0.000195   -0.10     59.64   
    47. D(H   8,C   1,C   0,H   6)   -179.78 -0.000075    0.06   -179.72   
    48. D(C   2,C   1,C   0,H   7)    120.72 -0.000610    0.31    121.03   
    49. D(C   3,C   2,C   1,C   0)   -179.12 -0.000146    0.19   -178.93   
    50. D(C   3,C   2,C   1,H   8)      0.69  0.000044    0.08      0.78   
    51. D(H   9,C   2,C   1,C   0)      0.19 -0.000529    0.39      0.57   
    52. D(H   9,C   2,C   1,H   8)   -180.00 -0.000339    0.28   -179.72   
    53. D(C   4,C   3,C   2,C   1)    123.80 -0.003241    2.34    126.14   
    54. D(C   4,C   3,C   2,H   9)    -55.54 -0.002886    2.15    -53.39   
    55. D(H  10,C   3,C   2,C   1)   -117.07 -0.000257    0.70   -116.36   
    56. D(H  10,C   3,C   2,H   9)     63.59  0.000099    0.52     64.11   
    57. D(H  11,C   3,C   2,C   1)      0.65  0.000204    0.39      1.04   
    58. D(H  12,C   4,C   3,C   2)    178.39  0.000734   -0.68    177.72   
    59. D(H  12,C   4,C   3,H  10)     58.03  0.001193   -0.47     57.56   
    60. D(H  12,C   4,C   3,H  11)    -58.86 -0.001977    1.13    -57.74   
    61. D(H  13,C   4,C   3,C   2)    -61.59  0.000924   -0.82    -62.42   
    62. D(H  13,C   4,C   3,H  10)    178.04  0.001383   -0.61    177.42   
    63. D(H  13,C   4,C   3,H  11)     61.15 -0.001787    0.98     62.13   
    64. D(O  15,H  10,C   3,C   2)      3.23  0.000405    0.11      3.34   
    65. D(O  15,H  10,C   3,C   4)    124.95 -0.001120    0.34    125.28   
    66. D(O  15,H  10,C   3,H  11)   -116.06  0.000417   -0.28   -116.34   
    67. C_Y(C   3)                     -0.84 -0.007609    0.00     -0.84 C 
    68. C_X(C   3)                     -1.15 -0.002361    0.00     -1.15 C 
    69. C_Z(C   3)                     -0.08 -0.015159    0.00     -0.08 C 
    70. C_Z(H  10)                     -0.95  0.005226   -0.00     -0.95 C 
    71. C_X(H  10)                     -1.47 -0.000017   -0.00     -1.47 C 
    72. C_Y(H  10)                     -1.41  0.002050   -0.00     -1.41 C 
    73. C_Z(O  15)                     -2.24  0.009934    0.00     -2.24 C 
    74. C_Y(O  15)                     -1.93  0.005559    0.00     -1.93 C 
    75. C_X(O  15)                     -1.50  0.002377   -0.00     -1.50 C 
    ----------------------------------------------------------------------------

Geometry step timings:
Preparation and reading OPT file:      0.000 s ( 0.052 %)
Internal coordinates            :      0.000 s ( 0.077 %)
B/P matrices and projection     :      0.002 s ( 4.344 %)
Hessian update/contruction      :      0.029 s (80.654 %)
Making the step                 :      0.001 s ( 3.831 %)
Converting the step to Cartesian:      0.000 s ( 0.466 %)
Storing new data                :      0.000 s ( 0.071 %)
Checking convergence            :      0.000 s ( 0.096 %)
Final printing                  :      0.004 s (10.401 %)
Total time                      :      0.036 s

Time for energy+gradient        :      0.068 s
Time for complete geometry iter :      0.119 s

         *************************************************************
         *                GEOMETRY OPTIMIZATION CYCLE   3            *
         *************************************************************
---------------------------------
CARTESIAN COORDINATES (ANGSTROEM)
---------------------------------
  C     2.427776    0.587124   -0.163987
  C     1.235747   -0.224684    0.154332
  C     0.031055   -0.054054   -0.408506
  C    -1.149753   -0.840407   -0.078009
  C    -2.333745    0.016090    0.311476
  H     3.222934   -0.057954   -0.538504
  H     2.195398    1.339609   -0.914890
  H     2.798311    1.080084    0.735483
  H     1.384943   -0.995707    0.900000
  H    -0.116727    0.713689   -1.157038
  H    -1.474726   -1.407278   -0.946451
  H    -0.913221   -1.571772    0.704152
  H    -3.203780   -0.605636    0.510751
  H    -2.092416    0.583508    1.211549
  H    -2.580104    0.718197   -0.483215
  O    -1.495615   -1.933353   -2.243682
  H    -1.181238   -2.061801   -3.118002

----------------------------
CARTESIAN COORDINATES (A.U.)
----------------------------
  NO LB    ZA    FRAG    MASS        X           Y           Z
   0 C   6.0000    0    12.011    4.587833    1.109503   -0.309891
   1 C   6.0000    0    12.011    2.335224   -0.424591    0.291644
   2 C   6.0000    0    12.011    0.058686   -0.102147   -0.771964
   3 C   6.0000    0    12.011   -2.172718   -1.588138   -0.147416
   4 C   6.0000    0    12.011   -4.410138    0.030406    0.588603
   5 H   1.0000    0     1.008    6.090463   -0.109516   -1.017626
   6 H   1.0000    0     1.008    4.148701    2.531494   -1.728891
   7 H   1.0000    0     1.008    5.288042    2.041062    1.389861
   8 H   1.0000    0     1.008    2.617162   -1.881614    1.700753
   9 H   1.0000    0     1.008   -0.220583    1.348677   -2.186484
  10 H   1.0000    0     1.008   -2.786828   -2.659370   -1.788533
  11 H   1.0000    0     1.008   -1.725737   -2.970218    1.330655
  12 H   1.0000    0     1.008   -6.054266   -1.144486    0.965179
  13 H   1.0000    0     1.008   -3.954094    1.102670    2.289496
  14 H   1.0000    0     1.008   -4.875691    1.357196   -0.913144
  15 O   8.0000    0    15.999   -2.826303   -3.653509   -4.239944
  16 H   1.0000    0     1.008   -2.232216   -3.896239   -5.892170

      -----------------------------------------------------------      
     |                   =====================                   |     
     |                           x T B                           |     
     |                   =====================                   |     
     |                         S. Grimme                         |     
     |          Mulliken Center for Theoretical Chemistry        |     
     |                    University of Bonn                     |     
      -----------------------------------------------------------      

   * xtb version 6.7.1 (edcfbbe) compiled by 'albert@albert-system' on 2024-07-22

   xtb is free software: you can redistribute it and/or modify it under
   the terms of the GNU Lesser General Public License as published by
   the Free Software Foundation, either version 3 of the License, or
   (at your option) any later version.
   
   xtb is distributed in the hope that it will be useful,
   but WITHOUT ANY WARRANTY; without even the implied warranty of
   MERCHANTABILITY or FITNESS FOR A PARTICULAR PURPOSE.  See the
   GNU Lesser General Public License for more details.
   
   Cite this work as:
   * C. Bannwarth, E. Caldeweyher, S. Ehlert, A. Hansen, P. Pracht,
     J. Seibert, S. Spicher, S. Grimme, WIREs Comput. Mol. Sci., 2020, 11,
     e01493. DOI: 10.1002/wcms.1493
   
   for GFN2-xTB:
   * C. Bannwarth, S. Ehlert and S. Grimme., J. Chem. Theory Comput., 2019,
     15, 1652-1671. DOI: 10.1021/acs.jctc.8b01176
   for GFN1-xTB:
   * S. Grimme, C. Bannwarth, P. Shushkov, J. Chem. Theory Comput., 2017,
     13, 1989-2009. DOI: 10.1021/acs.jctc.7b00118
   for GFN0-xTB:
   * P. Pracht, E. Caldeweyher, S. Ehlert, S. Grimme, ChemRxiv, 2019, preprint.
     DOI: 10.26434/chemrxiv.8326202.v1
   for GFN-FF:
   * S. Spicher and S. Grimme, Angew. Chem. Int. Ed., 2020, 59, 15665-15673.
     DOI: 10.1002/anie.202004239
   
   for ALPB and GBSA implicit solvation:
   * S. Ehlert, M. Stahn, S. Spicher, S. Grimme, J. Chem. Theory Comput.,
     2021, 17, 4250-4261. DOI: 10.1021/acs.jctc.1c00471
   
   for ddCOSMO and CPCM-X implicit solvation:
   * M. Stahn, S. Ehlert, S. Grimme, J. Phys. Chem. A,
     2023, XX, XXXX-XXXX. DOI: 10.1021/acs.jpca.3c04382
   
   for DFT-D4:
   * E. Caldeweyher, C. Bannwarth and S. Grimme, J. Chem. Phys., 2017,
     147, 034112. DOI: 10.1063/1.4993215
   * E. Caldeweyher, S. Ehlert, A. Hansen, H. Neugebauer, S. Spicher,
     C. Bannwarth and S. Grimme, J. Chem. Phys., 2019, 150, 154122.
     DOI: 10.1063/1.5090222
   * E. Caldeweyher, J.-M. Mewes, S. Ehlert and S. Grimme, Phys. Chem. Chem. Phys.
     2020, 22, 8499-8512. DOI: 10.1039/D0CP00502A
   
   for sTDA-xTB:
   * S. Grimme and C. Bannwarth, J. Chem. Phys., 2016, 145, 054103.
     DOI: 10.1063/1.4959605
   
   in the mass-spec context:
   * V. Asgeirsson, C. Bauer and S. Grimme, Chem. Sci., 2017, 8, 4879.
     DOI: 10.1039/c7sc00601b
   * J. Koopman and S. Grimme, ACS Omega 2019, 4, 12, 15120-15133.
     DOI: 10.1021/acsomega.9b02011
   
   for metadynamics refer to:
   * S. Grimme, J. Chem. Theory Comput., 2019, 155, 2847-2862
     DOI: 10.1021/acs.jctc.9b00143
   
   for SPH calculations refer to:
   * S. Spicher and S. Grimme, J. Chem. Theory Comput., 2021, 17, 1701-1714
     DOI: 10.1021/acs.jctc.0c01306
   
   for ONIOM refer to:
   * C. Plett, A. Katbashev, S. Ehlert, S. Grimme, M. Bursch,
     Phys. Chem. Chem. Phys., 2023, 25, 17860-17868. DOI: 10.1039/D3CP02178E
   
   for DIPRO refer to:
   * J. Kohn, N. Gildemeister, S. Grimme, D. Fazzi, A. Hansen,
     J. Chem. Phys., 2023, just accepted.
   
   for PTB refer to:
   * S. Grimme, M. Mueller, A. Hansen, J. Chem. Phys., 2023, 158, 124111.
     DOI: 10.1063/5.0137838
   
   with help from (in alphabetical order)
   P. Atkinson, C. Bannwarth, F. Bohle, G. Brandenburg, E. Caldeweyher
   M. Checinski, S. Dohm, S. Ehlert, S. Ehrlich, I. Gerasimov, C. Hölzer
   A. Katbashev, J. Kohn, J. Koopman, C. Lavigne, S. Lehtola, F. März, M. Müller,
   F. Musil, H. Neugebauer, J. Pisarek, C. Plett, P. Pracht, F. Pultar,
   J. Seibert, P. Shushkov, S. Spicher, M. Stahn, M. Steiner, T. Strunk,
   J. Stückrath, T. Rose, and J. Unsleber
   
 * started run on 2026/09/19 at 14:44:22.207     
   ID    Z sym.   atoms
    1    6 C      1-5
    2    1 H      6-15, 17
    3    8 O      16

           -------------------------------------------------
          |                Calculation Setup                |
           -------------------------------------------------

          program call               : /apps/eb/ORCA/6.1.1-gompi-2023b-avx2/bin/otool_xtb opt_XTB.xyz --grad -c 0 -u 1 -P 8 --namespace opt --input opt_XTB.input.tmp --acc 0.200000
          hostname                   : a1-8
          calculation namespace      : opt
          coordinate file            : opt_XTB.xyz
          omp threads                :                     8


molecular fragmentation (1/2 indicates fragments):
11111111111111122
# atoms in fragment 1/2:    15     2
 fragment masses (1/2) :       70.13       17.01
CMA distance (Bohr)    :   6.211
constraining FC (au)   :  0.0500

           -------------------------------------------------
          |                 G F N 2 - x T B                 |
           -------------------------------------------------

        Reference                      10.1021/acs.jctc.8b01176
      * Hamiltonian:
        H0-scaling (s, p, d)           1.850000    2.230000    2.230000
        zeta-weighting                 0.500000
      * Dispersion:
        s8                             2.700000
        a1                             0.520000
        a2                             5.000000
        s9                             5.000000
      * Repulsion:
        kExp                           1.500000    1.000000
        rExp                           1.000000
      * Coulomb:
        alpha                          2.000000
        third order                    shell-resolved
        anisotropic                    true
        a3                             3.000000
        a5                             4.000000
        cn-shift                       1.200000
        cn-exp                         4.000000
        max-rad                        5.000000

q/qsh data taken from xtbrestart
CAMM data taken from xtbrestart

          ...................................................
          :                      SETUP                      :
          :.................................................:
          :  # basis functions                  35          :
          :  # atomic orbitals                  35          :
          :  # shells                           23          :
          :  # electrons                        37          :
          :  max. iterations                   250          :
          :  Hamiltonian                  GFN2-xTB          :
          :  restarted?                       true          :
          :  GBSA solvation                  false          :
          :  PC potential                    false          :
          :  electronic temp.          300.0000000     K    :
          :  accuracy                    0.2000000          :
          :  -> integral cutoff          0.3198970E+02      :
          :  -> integral neglect         0.2000000E-08      :
          :  -> SCF convergence          0.2000000E-06 Eh   :
          :  -> wf. convergence          0.2000000E-04 e    :
          :  Broyden damping             0.4000000          :
          :  net charge                          0          :
          :  unpaired electrons                  1          :
          ...................................................

 iter      E             dE          RMSdq      gap      omega  full diag
   1    -20.5223211 -0.205223E+02  0.328E-01    4.07       0.0  T
   2    -20.5219799  0.341222E-03  0.258E-01    4.01       1.0  T
   3    -20.5223958 -0.415956E-03  0.189E-01    4.12       1.0  T
   4    -20.5226870 -0.291135E-03  0.640E-02    4.04       1.0  T
   5    -20.5227634 -0.764615E-04  0.150E-02    4.07       1.6  T
   6    -20.5227662 -0.278670E-05  0.499E-03    4.07       4.9  T
   7    -20.5227664 -0.140629E-06  0.174E-03    4.07      14.0  T
   8    -20.5227664 -0.131767E-07  0.613E-04    4.07      39.6  T
   9    -20.5227664 -0.196720E-08  0.231E-04    4.07     104.9  T
  10    -20.5227664 -0.147690E-09  0.534E-05    4.07     454.1  T
  11    -20.5227664 -0.150386E-10  0.269E-05    4.07     902.3  T

   *** convergence criteria satisfied after 11 iterations ***

         #    Occupation            Energy/Eh            Energy/eV
      -------------------------------------------------------------
         1        2.0000           -0.6397694             -17.4090
       ...           ...                  ...                  ...
        13        2.0000           -0.4639368             -12.6244
        14        2.0000           -0.4517540             -12.2929
        15        2.0000           -0.4386974             -11.9376
        16        2.0000           -0.4265631             -11.6074
        17        2.0000           -0.3956744             -10.7668
        18        2.0000           -0.3860187             -10.5041
        19        1.0000           -0.3589833              -9.7684 (HOMO)
        20                         -0.2093203              -5.6959 (LUMO)
        21                          0.1021509               2.7797
        22                          0.1088414               2.9617
        23                          0.1484673               4.0400
        24                          0.1628350               4.4310
       ...                                ...                  ...
        35                          0.5981031              16.2752
      -------------------------------------------------------------
                  HL-Gap            0.1496630 Eh            4.0725 eV
             Fermi-level           -0.3283264 Eh           -8.9342 eV

 SCC (total)                   0 d,  0 h,  0 min,  0.016 sec
 SCC setup                      ...        0 min,  0.000 sec (  1.198%)
 Dispersion                     ...        0 min,  0.000 sec (  0.808%)
 classical contributions        ...        0 min,  0.000 sec (  0.341%)
 integral evaluation            ...        0 min,  0.001 sec (  3.636%)
 iterations                     ...        0 min,  0.013 sec ( 78.123%)
 molecular gradient             ...        0 min,  0.002 sec ( 12.442%)
 printout                       ...        0 min,  0.001 sec (  3.333%)

         :::::::::::::::::::::::::::::::::::::::::::::::::::::
         ::                     SUMMARY                     ::
         :::::::::::::::::::::::::::::::::::::::::::::::::::::
         :: total energy             -20.229193015742 Eh    ::
         :: gradient norm              0.076854756117 Eh/a0 ::
         :: HOMO-LUMO gap              4.072537134373 eV    ::
         ::.................................................::
         :: SCC energy               -20.522740538841 Eh    ::
         :: -> isotropic ES            0.048869918138 Eh    ::
         :: -> anisotropic ES         -0.003596356566 Eh    ::
         :: -> anisotropic XC          0.010039759249 Eh    ::
         :: -> dispersion             -0.008404328138 Eh    ::
         :: repulsion energy           0.293547523099 Eh    ::
         :: add. restraining           0.000000000000 Eh    ::
         :: total charge               0.000000000025 e     ::
         :::::::::::::::::::::::::::::::::::::::::::::::::::::


Property printout bound to 'properties.out'

           -------------------------------------------------
          | TOTAL ENERGY              -20.229193015742 Eh   |
          | GRADIENT NORM               0.076854756117 Eh/α |
          | HOMO-LUMO GAP               4.072537134373 eV   |
           -------------------------------------------------

------------------------------------------------------------------------
 * finished run on 2026/09/19 at 14:44:22.245     
------------------------------------------------------------------------
 total:
 * wall-time:     0 d,  0 h,  0 min,  0.037 sec
 *  cpu-time:     0 d,  0 h,  0 min,  0.245 sec
 * ratio c/w:     6.544 speedup
 SCF:
 * wall-time:     0 d,  0 h,  0 min,  0.017 sec
 *  cpu-time:     0 d,  0 h,  0 min,  0.115 sec
 * ratio c/w:     6.939 speedup


-------------------------   --------------------
FINAL SINGLE POINT ENERGY       -20.229193015740
-------------------------   --------------------


-------------
DIPOLE MOMENT
-------------
                                X             Y             Z
Total Dipole Moment    :      0.73300       0.75400       0.63300
                        -----------------------------------------
Magnitude (a.u.)       :      1.22739
Magnitude (Debye)      :      3.11979


------------------
CARTESIAN GRADIENT
------------------

   1   C   :   -0.003452687   -0.003564921    0.001670840
   2   C   :    0.009034540    0.002076175    0.003666514
   3   C   :   -0.010921612   -0.001440157   -0.001503820
   4   C   :   -0.010687975   -0.015490890   -0.040641325
   5   C   :    0.005936308   -0.001065947    0.000899312
   6   H   :   -0.000808477   -0.000696152   -0.000090962
   7   H   :   -0.001188627    0.000043461   -0.000458507
   8   H   :   -0.000849331   -0.000174499    0.000556470
   9   H   :    0.001533601    0.000296236    0.000388783
  10   H   :   -0.001734506   -0.001462482   -0.001015590
  11   H   :   -0.005360473    0.009374932    0.030260633
  12   H   :    0.001930465    0.000720360    0.001941374
  13   H   :    0.000252170   -0.001154278   -0.000193527
  14   H   :    0.001127170    0.000017518    0.000301640
  15   H   :    0.000266721    0.000174714   -0.000854763
  16   O   :    0.036298552    0.021530004   -0.007982427
  17   H   :   -0.021375838   -0.009184074    0.013055357

Difference to translation invariance:
           :    0.0000000000    0.0000000000   -0.0000000000

Difference to rotation invariance:
           :    0.0000001854   -0.0000002600    0.0000000993

Norm of the Cartesian gradient     ...    0.0768547561
RMS gradient                       ...    0.0107618184
MAX gradient                       ...    0.0406413253
------------------------------------------------------------------------------
                         ORCA GEOMETRY RELAXATION STEP
------------------------------------------------------------------------------

Reading the OPT-File                    .... done
Getting information on internals        .... done
Copying old internal coords+grads       .... done
Making the new internal coordinates     .... (2022 redundants) done
Validating the new internal coordinates .... (2022 redundants) done
Calculating the B-matrix                .... done
Calculating the G,G- and P matrices     .... done
Transforming gradient to internals      .... done
Projecting the internal gradient        .... done
Number of atoms                         ....  17
Number of internal coordinates          ....  75
Current Energy                          ....   -20.229193016 Eh
Current gradient norm                   ....     0.076854756 Eh/bohr
Maximum allowed component of the step   ....  0.300
Current trust radius                    ....  0.200
Updating the Hessian (BFGS)             .... done
Forming the augmented Hessian           .... done
Diagonalizing the augmented Hessian     .... done
Last element of RFO vector              ....  0.889944560
Lowest eigenvalues of augmented Hessian:
 -0.016520249  0.010000708  0.010781723  0.010875446  0.029229410
Length of the computed step             ....  0.512468691
Warning: the length of the step is outside the trust region - taking restricted step instead
The input lambda is                     ....     0.008998
   iter:   5  x=   -0.015855  g=   33.948805 f(x)=     0.476361
   iter:  10  x=   -0.110219  g=    0.529173 f(x)=     0.001168
The output lambda is                    ....    -0.110269 (13 iterations)
The final length of the internal step   ....  0.200000000
Converting the step to Cartesian space:
 Initial RMS(Int)=    0.0230940108
Transforming coordinates:
 Iter   0:  RMS(Cart)=    0.0530943399 RMS(Int)=    0.0231899780
 Iter   5:  RMS(Cart)=    0.0000075447 RMS(Int)=    0.0000050426
 Iter  10:  RMS(Cart)=    0.0000003156 RMS(Int)=    0.0000002097
Imposing constraints:
 Iter   0:  RMS(Cart)=    0.0000000000 RMS(Int)=    0.0000000000
CONVERGED
done
Storing new coordinates                 .... done
The predicted energy change is          ....    -0.005719369
Previously predicted energy change      ....    -0.009917245
Actually observed energy change         ....    -0.010461593
Ratio of predicted to observed change   ....     1.054889060
New trust radius                        ....     0.300000000

                                .--------------------.
          ----------------------|Geometry convergence|-------------------------
          Item                value                   Tolerance       Converged
          ---------------------------------------------------------------------
          Energy change      -0.0104615930            0.0000050000      NO
          RMS gradient        0.0049902083            0.0001000000      NO
          MAX gradient        0.0347725793            0.0003000000      NO
          RMS step            0.0230940108            0.0020000000      NO
          MAX step            0.1940895488            0.0040000000      NO
          -------------------------------------------------------------------------
          ........................................................
          Max(Bonds)      0.0038      Max(Angles)   11.12
          Max(Dihed)        1.17      Max(Improp)    0.00
          ---------------------------------------------------------------------

The optimization has not yet converged - more geometry cycles are needed


    ---------------------------------------------------------------------------
                         Redundant Internal Coordinates
                            (Angstroem and degrees)

        Definition                    Value    dE/dq     Step     New-Value
    ----------------------------------------------------------------------------
     1. B(C   1,C   0)                1.4769 -0.007860 -0.0021    1.4748   
     2. B(C   2,C   1)                1.3406  0.006500  0.0035    1.3441   
     3. B(C   3,C   2)                1.4567 -0.010185 -0.0038    1.4528   
     4. B(C   4,C   3)                1.5123 -0.007045 -0.0008    1.5115   
     5. B(H   5,C   0)                1.0903 -0.000147  0.0009    1.0911   
     6. B(H   6,C   0)                1.0882  0.000600  0.0003    1.0885   
     7. B(H   7,C   0)                1.0906  0.000092  0.0007    1.0913   
     8. B(H   8,C   1)                1.0829  0.000268  0.0002    1.0832   
     9. B(H   9,C   2)                1.0824 -0.000098  0.0006    1.0830   
    10. B(H  10,C   3)                1.0868 -0.025143  0.0000    1.0868   
    11. B(H  11,C   3)                1.0966  0.001321  0.0015    1.0981   
    12. B(H  12,C   4)                1.0878  0.000423  0.0002    1.0880   
    13. B(H  13,C   4)                1.0910  0.000507  0.0010    1.0920   
    14. B(H  14,C   4)                1.0887  0.000676  0.0003    1.0889   
    15. B(O  15,H  10)                1.4000 -0.000552  0.0000    1.4000   
    16. B(H  16,O  15)                0.9380 -0.018076  0.0033    0.9413   
    17. A(H   5,C   0,H   7)          107.64  0.001265   -0.18    107.46   
    18. A(C   1,C   0,H   7)          110.18 -0.000911    0.02    110.20   
    19. A(H   6,C   0,H   7)          109.22  0.000967   -0.02    109.20   
    20. A(C   1,C   0,H   6)          110.88 -0.001283    0.26    111.14   
    21. A(H   5,C   0,H   6)          109.14  0.001015   -0.03    109.11   
    22. A(C   1,C   0,H   5)          109.72 -0.000951   -0.07    109.65   
    23. A(C   0,C   1,C   2)          124.39 -0.001315    0.22    124.61   
    24. A(C   2,C   1,H   8)          120.23  0.002279   -0.23    120.00   
    25. A(C   0,C   1,H   8)          115.38 -0.000964    0.01    115.39   
    26. A(C   1,C   2,C   3)          124.37 -0.001472    0.21    124.58   
    27. A(C   1,C   2,H   9)          120.22  0.002910   -0.36    119.86   
    28. A(C   3,C   2,H   9)          115.41 -0.001440    0.15    115.56   
    29. A(C   2,C   3,C   4)          112.79 -0.002457    0.69    113.48   
    30. A(C   2,C   3,H  10)          110.04 -0.000579    0.26    110.30   
    31. A(C   4,C   3,H  10)          105.49  0.002631   -1.11    104.39   
    32. A(C   2,C   3,H  11)          110.30 -0.000415    0.25    110.56   
    33. A(C   4,C   3,H  11)          111.28 -0.000044    0.26    111.53   
    34. A(H  10,C   3,H  11)          106.65  0.001183   -0.46    106.20   
    35. A(C   3,C   4,H  12)          110.47 -0.001306    0.15    110.62   
    36. A(C   3,C   4,H  13)          109.50 -0.001042   -0.03    109.47   
    37. A(H  12,C   4,H  13)          108.85  0.001182   -0.10    108.75   
    38. A(C   3,C   4,H  14)          110.76 -0.000406    0.14    110.89   
    39. A(H  12,C   4,H  14)          108.74  0.000759   -0.07    108.67   
    40. A(H  13,C   4,H  14)          108.47  0.000894   -0.10    108.37   
    41. A(C   3,H  10,O  15)          160.20 -0.004422   -0.00    160.20   
    42. L(H  10,O  15,H  16,C   3, 1) 155.53  0.034773  -11.12    144.41   
    43. L(H  10,O  15,H  16,C   3, 2) 179.95  0.000148   -0.04    179.91   
    44. D(C   2,C   1,C   0,H   5)   -120.64  0.000187   -0.10   -120.74   
    45. D(C   2,C   1,C   0,H   6)     -0.00  0.000005   -0.02     -0.03   
    46. D(H   8,C   1,C   0,H   5)     59.64  0.000113   -0.05     59.59   
    47. D(H   8,C   1,C   0,H   6)   -179.72 -0.000069    0.03   -179.69   
    48. D(C   2,C   1,C   0,H   7)    121.03 -0.000231    0.14    121.17   
    49. D(C   3,C   2,C   1,C   0)   -178.93 -0.000001    0.06   -178.87   
    50. D(C   3,C   2,C   1,H   8)      0.78  0.000067    0.00      0.78   
    51. D(H   9,C   2,C   1,C   0)      0.57 -0.000262    0.15      0.72   
    52. D(H   9,C   2,C   1,H   8)   -179.72 -0.000193    0.09   -179.63   
    53. D(C   4,C   3,C   2,C   1)    126.14 -0.002323    1.17    127.31   
    54. D(C   4,C   3,C   2,H   9)    -53.38 -0.002093    1.09    -52.29   
    55. D(H  10,C   3,C   2,C   1)   -116.36 -0.000954    0.39   -115.97   
    56. D(H  10,C   3,C   2,H   9)     64.11 -0.000725    0.31     64.43   
    57. D(H  11,C   3,C   2,C   1)      1.03 -0.000106    0.14      1.18   
    58. D(H  12,C   4,C   3,C   2)    177.70  0.000779   -0.37    177.34   
    59. D(H  12,C   4,C   3,H  10)     57.56  0.001173   -0.37     57.19   
    60. D(H  12,C   4,C   3,H  11)    -57.72 -0.001679    0.67    -57.05   
    61. D(H  13,C   4,C   3,C   2)    -62.43  0.000767   -0.41    -62.84   
    62. D(H  13,C   4,C   3,H  10)    177.43  0.001160   -0.42    177.01   
    63. D(H  13,C   4,C   3,H  11)     62.15 -0.001692    0.63     62.78   
    64. D(O  15,H  10,C   3,C   2)      3.33  0.000383    0.00      3.33   
    65. D(O  15,H  10,C   3,C   4)    125.26 -0.001301    0.32    125.59   
    66. D(O  15,H  10,C   3,H  11)   -116.32  0.000502   -0.18   -116.49   
    67. C_Y(C   3)                     -0.84 -0.007800    0.00     -0.84 C 
    68. C_X(C   3)                     -1.15 -0.002356    0.00     -1.15 C 
    69. C_Z(C   3)                     -0.08 -0.015652    0.00     -0.08 C 
    70. C_Z(H  10)                     -0.95  0.007899   -0.00     -0.95 C 
    71. C_X(H  10)                     -1.47 -0.000113   -0.00     -1.47 C 
    72. C_Y(H  10)                     -1.41  0.003037   -0.00     -1.41 C 
    73. C_Z(O  15)                     -2.24  0.007753   -0.00     -2.24 C 
    74. C_Y(O  15)                     -1.93  0.004763    0.00     -1.93 C 
    75. C_X(O  15)                     -1.50  0.002469    0.00     -1.50 C 
    ----------------------------------------------------------------------------

Geometry step timings:
Preparation and reading OPT file:      0.000 s ( 0.132 %)
Internal coordinates            :      0.000 s ( 0.206 %)
B/P matrices and projection     :      0.002 s (11.562 %)
Hessian update/contruction      :      0.007 s (54.060 %)
Making the step                 :      0.001 s ( 9.253 %)
Converting the step to Cartesian:      0.000 s ( 1.287 %)
Storing new data                :      0.000 s ( 0.177 %)
Checking convergence            :      0.000 s ( 0.272 %)
Final printing                  :      0.003 s (23.051 %)
Total time                      :      0.014 s

Time for energy+gradient        :      0.061 s
Time for complete geometry iter :      0.090 s

         *************************************************************
         *                GEOMETRY OPTIMIZATION CYCLE   4            *
         *************************************************************
---------------------------------
CARTESIAN COORDINATES (ANGSTROEM)
---------------------------------
  C     2.428049    0.587785   -0.151649
  C     1.237796   -0.225965    0.158615
  C     0.028052   -0.053641   -0.401268
  C    -1.149753   -0.840407   -0.078009
  C    -2.350916   -0.001537    0.293836
  H     3.223761   -0.055481   -0.530620
  H     2.200218    1.348803   -0.895781
  H     2.800555    1.070796    0.753208
  H     1.386704   -1.003538    0.897845
  H    -0.116735    0.720640   -1.144527
  H    -1.474726   -1.407278   -0.946451
  H    -0.917952   -1.579183    0.700654
  H    -3.216595   -0.633488    0.480590
  H    -2.130706    0.568571    1.198811
  H    -2.596381    0.699660   -0.502298
  O    -1.495615   -1.933353   -2.243682
  H    -1.045585   -1.950057   -3.070270

----------------------------
CARTESIAN COORDINATES (A.U.)
----------------------------
  NO LB    ZA    FRAG    MASS        X           Y           Z
   0 C   6.0000    0    12.011    4.588348    1.110752   -0.286575
   1 C   6.0000    0    12.011    2.339096   -0.427012    0.299740
   2 C   6.0000    0    12.011    0.053011   -0.101367   -0.758287
   3 C   6.0000    0    12.011   -2.172718   -1.588138   -0.147416
   4 C   6.0000    0    12.011   -4.442588   -0.002905    0.555269
   5 H   1.0000    0     1.008    6.092025   -0.104845   -1.002726
   6 H   1.0000    0     1.008    4.157810    2.548868   -1.692780
   7 H   1.0000    0     1.008    5.292283    2.023511    1.423357
   8 H   1.0000    0     1.008    2.620491   -1.896412    1.696682
   9 H   1.0000    0     1.008   -0.220597    1.361812   -2.162843
  10 H   1.0000    0     1.008   -2.786828   -2.659370   -1.788533
  11 H   1.0000    0     1.008   -1.734678   -2.984223    1.324045
  12 H   1.0000    0     1.008   -6.078483   -1.197119    0.908184
  13 H   1.0000    0     1.008   -4.026451    1.074443    2.265425
  14 H   1.0000    0     1.008   -4.906449    1.322166   -0.949206
  15 O   8.0000    0    15.999   -2.826303   -3.653509   -4.239944
  16 H   1.0000    0     1.008   -1.975869   -3.685074   -5.801970

      -----------------------------------------------------------      
     |                   =====================                   |     
     |                           x T B                           |     
     |                   =====================                   |     
     |                         S. Grimme                         |     
     |          Mulliken Center for Theoretical Chemistry        |     
     |                    University of Bonn                     |     
      -----------------------------------------------------------      

   * xtb version 6.7.1 (edcfbbe) compiled by 'albert@albert-system' on 2024-07-22

   xtb is free software: you can redistribute it and/or modify it under
   the terms of the GNU Lesser General Public License as published by
   the Free Software Foundation, either version 3 of the License, or
   (at your option) any later version.
   
   xtb is distributed in the hope that it will be useful,
   but WITHOUT ANY WARRANTY; without even the implied warranty of
   MERCHANTABILITY or FITNESS FOR A PARTICULAR PURPOSE.  See the
   GNU Lesser General Public License for more details.
   
   Cite this work as:
   * C. Bannwarth, E. Caldeweyher, S. Ehlert, A. Hansen, P. Pracht,
     J. Seibert, S. Spicher, S. Grimme, WIREs Comput. Mol. Sci., 2020, 11,
     e01493. DOI: 10.1002/wcms.1493
   
   for GFN2-xTB:
   * C. Bannwarth, S. Ehlert and S. Grimme., J. Chem. Theory Comput., 2019,
     15, 1652-1671. DOI: 10.1021/acs.jctc.8b01176
   for GFN1-xTB:
   * S. Grimme, C. Bannwarth, P. Shushkov, J. Chem. Theory Comput., 2017,
     13, 1989-2009. DOI: 10.1021/acs.jctc.7b00118
   for GFN0-xTB:
   * P. Pracht, E. Caldeweyher, S. Ehlert, S. Grimme, ChemRxiv, 2019, preprint.
     DOI: 10.26434/chemrxiv.8326202.v1
   for GFN-FF:
   * S. Spicher and S. Grimme, Angew. Chem. Int. Ed., 2020, 59, 15665-15673.
     DOI: 10.1002/anie.202004239
   
   for ALPB and GBSA implicit solvation:
   * S. Ehlert, M. Stahn, S. Spicher, S. Grimme, J. Chem. Theory Comput.,
     2021, 17, 4250-4261. DOI: 10.1021/acs.jctc.1c00471
   
   for ddCOSMO and CPCM-X implicit solvation:
   * M. Stahn, S. Ehlert, S. Grimme, J. Phys. Chem. A,
     2023, XX, XXXX-XXXX. DOI: 10.1021/acs.jpca.3c04382
   
   for DFT-D4:
   * E. Caldeweyher, C. Bannwarth and S. Grimme, J. Chem. Phys., 2017,
     147, 034112. DOI: 10.1063/1.4993215
   * E. Caldeweyher, S. Ehlert, A. Hansen, H. Neugebauer, S. Spicher,
     C. Bannwarth and S. Grimme, J. Chem. Phys., 2019, 150, 154122.
     DOI: 10.1063/1.5090222
   * E. Caldeweyher, J.-M. Mewes, S. Ehlert and S. Grimme, Phys. Chem. Chem. Phys.
     2020, 22, 8499-8512. DOI: 10.1039/D0CP00502A
   
   for sTDA-xTB:
   * S. Grimme and C. Bannwarth, J. Chem. Phys., 2016, 145, 054103.
     DOI: 10.1063/1.4959605
   
   in the mass-spec context:
   * V. Asgeirsson, C. Bauer and S. Grimme, Chem. Sci., 2017, 8, 4879.
     DOI: 10.1039/c7sc00601b
   * J. Koopman and S. Grimme, ACS Omega 2019, 4, 12, 15120-15133.
     DOI: 10.1021/acsomega.9b02011
   
   for metadynamics refer to:
   * S. Grimme, J. Chem. Theory Comput., 2019, 155, 2847-2862
     DOI: 10.1021/acs.jctc.9b00143
   
   for SPH calculations refer to:
   * S. Spicher and S. Grimme, J. Chem. Theory Comput., 2021, 17, 1701-1714
     DOI: 10.1021/acs.jctc.0c01306
   
   for ONIOM refer to:
   * C. Plett, A. Katbashev, S. Ehlert, S. Grimme, M. Bursch,
     Phys. Chem. Chem. Phys., 2023, 25, 17860-17868. DOI: 10.1039/D3CP02178E
   
   for DIPRO refer to:
   * J. Kohn, N. Gildemeister, S. Grimme, D. Fazzi, A. Hansen,
     J. Chem. Phys., 2023, just accepted.
   
   for PTB refer to:
   * S. Grimme, M. Mueller, A. Hansen, J. Chem. Phys., 2023, 158, 124111.
     DOI: 10.1063/5.0137838
   
   with help from (in alphabetical order)
   P. Atkinson, C. Bannwarth, F. Bohle, G. Brandenburg, E. Caldeweyher
   M. Checinski, S. Dohm, S. Ehlert, S. Ehrlich, I. Gerasimov, C. Hölzer
   A. Katbashev, J. Kohn, J. Koopman, C. Lavigne, S. Lehtola, F. März, M. Müller,
   F. Musil, H. Neugebauer, J. Pisarek, C. Plett, P. Pracht, F. Pultar,
   J. Seibert, P. Shushkov, S. Spicher, M. Stahn, M. Steiner, T. Strunk,
   J. Stückrath, T. Rose, and J. Unsleber
   
 * started run on 2026/09/19 at 14:44:22.297     
   ID    Z sym.   atoms
    1    6 C      1-5
    2    1 H      6-15, 17
    3    8 O      16

           -------------------------------------------------
          |                Calculation Setup                |
           -------------------------------------------------

          program call               : /apps/eb/ORCA/6.1.1-gompi-2023b-avx2/bin/otool_xtb opt_XTB.xyz --grad -c 0 -u 1 -P 8 --namespace opt --input opt_XTB.input.tmp --acc 0.200000
          hostname                   : a1-8
          calculation namespace      : opt
          coordinate file            : opt_XTB.xyz
          omp threads                :                     8


molecular fragmentation (1/2 indicates fragments):
11111111111111122
# atoms in fragment 1/2:    15     2
 fragment masses (1/2) :       70.13       17.01
CMA distance (Bohr)    :   6.187
constraining FC (au)   :  0.0500

           -------------------------------------------------
          |                 G F N 2 - x T B                 |
           -------------------------------------------------

        Reference                      10.1021/acs.jctc.8b01176
      * Hamiltonian:
        H0-scaling (s, p, d)           1.850000    2.230000    2.230000
        zeta-weighting                 0.500000
      * Dispersion:
        s8                             2.700000
        a1                             0.520000
        a2                             5.000000
        s9                             5.000000
      * Repulsion:
        kExp                           1.500000    1.000000
        rExp                           1.000000
      * Coulomb:
        alpha                          2.000000
        third order                    shell-resolved
        anisotropic                    true
        a3                             3.000000
        a5                             4.000000
        cn-shift                       1.200000
        cn-exp                         4.000000
        max-rad                        5.000000

q/qsh data taken from xtbrestart
CAMM data taken from xtbrestart

          ...................................................
          :                      SETUP                      :
          :.................................................:
          :  # basis functions                  35          :
          :  # atomic orbitals                  35          :
          :  # shells                           23          :
          :  # electrons                        37          :
          :  max. iterations                   250          :
          :  Hamiltonian                  GFN2-xTB          :
          :  restarted?                       true          :
          :  GBSA solvation                  false          :
          :  PC potential                    false          :
          :  electronic temp.          300.0000000     K    :
          :  accuracy                    0.2000000          :
          :  -> integral cutoff          0.3198970E+02      :
          :  -> integral neglect         0.2000000E-08      :
          :  -> SCF convergence          0.2000000E-06 Eh   :
          :  -> wf. convergence          0.2000000E-04 e    :
          :  Broyden damping             0.4000000          :
          :  net charge                          0          :
          :  unpaired electrons                  1          :
          ...................................................

 iter      E             dE          RMSdq      gap      omega  full diag
   1    -20.5276922 -0.205277E+02  0.212E-01    3.87       0.0  T
   2    -20.5277122 -0.200352E-04  0.131E-01    3.93       1.0  T
   3    -20.5275967  0.115561E-03  0.876E-02    3.86       1.0  T
   4    -20.5277281 -0.131399E-03  0.206E-02    3.91       1.2  T
   5    -20.5277337 -0.564573E-05  0.451E-03    3.91       5.4  T
   6    -20.5277337 -0.114503E-07  0.303E-03    3.91       8.0  T
   7    -20.5277338 -0.878509E-07  0.782E-04    3.91      31.0  T
   8    -20.5277338 -0.271179E-08  0.298E-04    3.91      81.3  T
   9    -20.5277338 -0.402167E-09  0.731E-05    3.91     331.7  T
  10    -20.5277338 -0.168328E-10  0.286E-05    3.91     846.8  T

   *** convergence criteria satisfied after 10 iterations ***

         #    Occupation            Energy/Eh            Energy/eV
      -------------------------------------------------------------
         1        2.0000           -0.6408530             -17.4385
       ...           ...                  ...                  ...
        13        2.0000           -0.4661158             -12.6837
        14        2.0000           -0.4525494             -12.3145
        15        2.0000           -0.4399574             -11.9718
        16        2.0000           -0.4329358             -11.7808
        17        2.0000           -0.4002310             -10.8908
        18        2.0000           -0.3880387             -10.5591
        19        1.0000           -0.3539883              -9.6325 (HOMO)
        20                         -0.2104536              -5.7267 (LUMO)
        21                          0.1006587               2.7391
        22                          0.1076010               2.9280
        23                          0.1467164               3.9924
        24                          0.1628922               4.4325
       ...                                ...                  ...
        35                          0.5893903              16.0381
      -------------------------------------------------------------
                  HL-Gap            0.1435347 Eh            3.9058 eV
             Fermi-level           -0.3266173 Eh           -8.8877 eV

 SCC (total)                   0 d,  0 h,  0 min,  0.008 sec
 SCC setup                      ...        0 min,  0.000 sec (  2.478%)
 Dispersion                     ...        0 min,  0.000 sec (  1.123%)
 classical contributions        ...        0 min,  0.000 sec (  0.311%)
 integral evaluation            ...        0 min,  0.000 sec (  5.590%)
 iterations                     ...        0 min,  0.006 sec ( 76.958%)
 molecular gradient             ...        0 min,  0.001 sec ( 11.038%)
 printout                       ...        0 min,  0.000 sec (  2.247%)

         :::::::::::::::::::::::::::::::::::::::::::::::::::::
         ::                     SUMMARY                     ::
         :::::::::::::::::::::::::::::::::::::::::::::::::::::
         :: total energy             -20.235629293265 Eh    ::
         :: gradient norm              0.077842196075 Eh/a0 ::
         :: HOMO-LUMO gap              3.905778313388 eV    ::
         ::.................................................::
         :: SCC energy               -20.527707832615 Eh    ::
         :: -> isotropic ES            0.048237338527 Eh    ::
         :: -> anisotropic ES         -0.003199376416 Eh    ::
         :: -> anisotropic XC          0.010002219103 Eh    ::
         :: -> dispersion             -0.008414690161 Eh    ::
         :: repulsion energy           0.292078539350 Eh    ::
         :: add. restraining           0.000000000000 Eh    ::
         :: total charge               0.000000000000 e     ::
         :::::::::::::::::::::::::::::::::::::::::::::::::::::


Property printout bound to 'properties.out'

           -------------------------------------------------
          | TOTAL ENERGY              -20.235629293265 Eh   |
          | GRADIENT NORM               0.077842196075 Eh/α |
          | HOMO-LUMO GAP               3.905778313388 eV   |
           -------------------------------------------------

------------------------------------------------------------------------
 * finished run on 2026/09/19 at 14:44:22.327     
------------------------------------------------------------------------
 total:
 * wall-time:     0 d,  0 h,  0 min,  0.030 sec
 *  cpu-time:     0 d,  0 h,  0 min,  0.202 sec
 * ratio c/w:     6.807 speedup
 SCF:
 * wall-time:     0 d,  0 h,  0 min,  0.008 sec
 *  cpu-time:     0 d,  0 h,  0 min,  0.062 sec
 * ratio c/w:     7.909 speedup


-------------------------   --------------------
FINAL SINGLE POINT ENERGY       -20.235629293260
-------------------------   --------------------


-------------
DIPOLE MOMENT
-------------
                                X             Y             Z
Total Dipole Moment    :      0.79700       0.81600       0.67300
                        -----------------------------------------
Magnitude (a.u.)       :      1.32438
Magnitude (Debye)      :      3.36632


------------------
CARTESIAN GRADIENT
------------------

   1   C   :   -0.004875627   -0.003958131    0.001889149
   2   C   :    0.013610029    0.002785617    0.004330188
   3   C   :   -0.015487773   -0.002958237   -0.002000852
   4   C   :   -0.008868075   -0.013945479   -0.042745900
   5   C   :    0.005579334   -0.002341424   -0.000425663
   6   H   :   -0.000522090   -0.000970855   -0.000085936
   7   H   :   -0.000995499    0.000263994   -0.000615999
   8   H   :   -0.000554745   -0.000119385    0.000823676
   9   H   :    0.001484368    0.000175113    0.000396673
  10   H   :   -0.001478470   -0.001285400   -0.001211210
  11   H   :   -0.004327853    0.013126850    0.036360296
  12   H   :    0.002002124   -0.000240994    0.002177231
  13   H   :   -0.000073902   -0.000995970   -0.000090618
  14   H   :    0.001249263    0.000224054    0.000641976
  15   H   :   -0.000005676    0.000401139   -0.000796452
  16   O   :    0.031573154    0.019662426   -0.004877998
  17   H   :   -0.018308560   -0.009823318    0.006231439

Difference to translation invariance:
           :    0.0000000000   -0.0000000000    0.0000000000

Difference to rotation invariance:
           :    0.0000001642   -0.0000002348    0.0000000869

Norm of the Cartesian gradient     ...    0.0778421961
RMS gradient                       ...    0.0109000877
MAX gradient                       ...    0.0427458998
------------------------------------------------------------------------------
                         ORCA GEOMETRY RELAXATION STEP
------------------------------------------------------------------------------

Reading the OPT-File                    .... done
Getting information on internals        .... done
Copying old internal coords+grads       .... done
Making the new internal coordinates     .... (2022 redundants) done
Validating the new internal coordinates .... (2022 redundants) done
Calculating the B-matrix                .... done
Calculating the G,G- and P matrices     .... done
Transforming gradient to internals      .... done
Projecting the internal gradient        .... done
Number of atoms                         ....  17
Number of internal coordinates          ....  75
Current Energy                          ....   -20.235629293 Eh
Current gradient norm                   ....     0.077842196 Eh/bohr
Maximum allowed component of the step   ....  0.300
Current trust radius                    ....  0.300
Updating the Hessian (BFGS)             .... done
Forming the augmented Hessian           .... done
Diagonalizing the augmented Hessian     .... done
Last element of RFO vector              ....  0.850059022
Lowest eigenvalues of augmented Hessian:
 -0.018967228  0.010000590  0.010781680  0.010818338  0.029229699
Length of the computed step             ....  0.619589258
Warning: the length of the step is outside the trust region - taking restricted step instead
The input lambda is                     ....     0.008997
   iter:   5  x=   -0.018154  g=   53.937314 f(x)=     0.719706
   iter:  10  x=   -0.069460  g=    1.825477 f(x)=     0.000335
The output lambda is                    ....    -0.069460 (13 iterations)
The final length of the internal step   ....  0.300000000
Converting the step to Cartesian space:
 Initial RMS(Int)=    0.0346410162
Transforming coordinates:
 Iter   0:  RMS(Cart)=    0.0773853766 RMS(Int)=    0.0350325632
 Iter   5:  RMS(Cart)=    0.0000762674 RMS(Int)=    0.0000395924
 Iter  10:  RMS(Cart)=    0.0000007177 RMS(Int)=    0.0000003865
Imposing constraints:
 Iter   0:  RMS(Cart)=    0.0000000000 RMS(Int)=    0.0000000000
CONVERGED
done
Storing new coordinates                 .... done
The predicted energy change is          ....    -0.007933957
Previously predicted energy change      ....    -0.005719369
Actually observed energy change         ....    -0.006436278
Ratio of predicted to observed change   ....     1.125347456
New trust radius                        ....     0.450000000

                                .--------------------.
          ----------------------|Geometry convergence|-------------------------
          Item                value                   Tolerance       Converged
          ---------------------------------------------------------------------
          Energy change      -0.0064362775            0.0000050000      NO
          RMS gradient        0.0044277977            0.0001000000      NO
          MAX gradient        0.0293931306            0.0003000000      NO
          RMS step            0.0346410162            0.0020000000      NO
          MAX step            0.2927043714            0.0040000000      NO
          -------------------------------------------------------------------------
          ........................................................
          Max(Bonds)      0.0099      Max(Angles)   16.77
          Max(Dihed)        1.49      Max(Improp)    0.00
          ---------------------------------------------------------------------

The optimization has not yet converged - more geometry cycles are needed


    ---------------------------------------------------------------------------
                         Redundant Internal Coordinates
                            (Angstroem and degrees)

        Definition                    Value    dE/dq     Step     New-Value
    ----------------------------------------------------------------------------
     1. B(C   1,C   0)                1.4748 -0.008670  0.0067    1.4816   
     2. B(C   2,C   1)                1.3441  0.010372 -0.0034    1.3407   
     3. B(C   3,C   2)                1.4528 -0.011220  0.0072    1.4601   
     4. B(C   4,C   3)                1.5115 -0.007033  0.0058    1.5174   
     5. B(H   5,C   0)                1.0911  0.000221  0.0002    1.0914   
     6. B(H   6,C   0)                1.0885  0.000814 -0.0007    1.0877   
     7. B(H   7,C   0)                1.0913  0.000441 -0.0002    1.0910   
     8. B(H   8,C   1)                1.0832  0.000349 -0.0001    1.0830   
     9. B(H   9,C   2)                1.0830  0.000110  0.0004    1.0834   
    10. B(H  10,C   3)                1.0868 -0.027134 -0.0000    1.0868   
    11. B(H  11,C   3)                1.0981  0.002129 -0.0016    1.0965   
    12. B(H  12,C   4)                1.0880  0.000622 -0.0007    1.0872   
    13. B(H  13,C   4)                1.0920  0.000901 -0.0003    1.0917   
    14. B(H  14,C   4)                1.0889  0.000842 -0.0007    1.0882   
    15. B(O  15,H  10)                1.4000  0.002516  0.0000    1.4000   
    16. B(H  16,O  15)                0.9413 -0.014051  0.0099    0.9512   
    17. A(H   5,C   0,H   7)          107.46  0.001065   -0.26    107.19   
    18. A(C   1,C   0,H   7)          110.20 -0.000831    0.11    110.31   
    19. A(H   6,C   0,H   7)          109.20  0.000915   -0.15    109.05   
    20. A(C   1,C   0,H   6)          111.14 -0.000836    0.31    111.45   
    21. A(H   5,C   0,H   6)          109.11  0.000959   -0.15    108.96   
    22. A(C   1,C   0,H   5)          109.65 -0.001183    0.11    109.77   
    23. A(C   0,C   1,C   2)          124.61 -0.000651    0.23    124.84   
    24. A(C   2,C   1,H   8)          120.00  0.001867   -0.43    119.58   
    25. A(C   0,C   1,H   8)          115.39 -0.001216    0.20    115.59   
    26. A(C   1,C   2,C   3)          124.58 -0.000696    0.20    124.78   
    27. A(C   1,C   2,H   9)          119.86  0.002244   -0.59    119.27   
    28. A(C   3,C   2,H   9)          115.56 -0.001549    0.39    115.96   
    29. A(C   2,C   3,C   4)          113.48 -0.001368    0.76    114.24   
    30. A(C   2,C   3,H  10)          110.31 -0.000097    0.26    110.57   
    31. A(C   4,C   3,H  10)          104.38  0.001153   -1.06    103.33   
    32. A(C   2,C   3,H  11)          110.55 -0.000752    0.35    110.90   
    33. A(C   4,C   3,H  11)          111.51  0.000217    0.12    111.64   
    34. A(H  10,C   3,H  11)          106.19  0.001125   -0.63    105.56   
    35. A(C   3,C   4,H  12)          110.62 -0.000814    0.18    110.80   
    36. A(C   3,C   4,H  13)          109.47 -0.001338    0.19    109.66   
    37. A(H  12,C   4,H  13)          108.75  0.001047   -0.20    108.56   
    38. A(C   3,C   4,H  14)          110.89  0.000006    0.07    110.96   
    39. A(H  12,C   4,H  14)          108.67  0.000516   -0.10    108.57   
    40. A(H  13,C   4,H  14)          108.37  0.000650   -0.16    108.21   
    41. A(C   3,H  10,O  15)          160.20 -0.004774   -0.00    160.20   
    42. L(H  10,O  15,H  16,C   3, 1) 144.41  0.029393  -16.77    127.64   
    43. L(H  10,O  15,H  16,C   3, 2) 179.91  0.000152   -0.07    179.84   
    44. D(C   2,C   1,C   0,H   5)   -120.74  0.000069   -0.08   -120.83   
    45. D(C   2,C   1,C   0,H   6)     -0.03 -0.000053    0.00     -0.02   
    46. D(H   8,C   1,C   0,H   5)     59.59  0.000068   -0.06     59.53   
    47. D(H   8,C   1,C   0,H   6)   -179.69 -0.000054    0.03   -179.66   
    48. D(C   2,C   1,C   0,H   7)    121.17 -0.000015    0.10    121.26   
    49. D(C   3,C   2,C   1,C   0)   -178.87  0.000072   -0.02   -178.89   
    50. D(C   3,C   2,C   1,H   8)      0.78  0.000063   -0.05      0.73   
    51. D(H   9,C   2,C   1,C   0)      0.72 -0.000103    0.08      0.80   
    52. D(H   9,C   2,C   1,H   8)   -179.63 -0.000112    0.06   -179.57   
    53. D(C   4,C   3,C   2,C   1)    127.31 -0.001777    1.49    128.80   
    54. D(C   4,C   3,C   2,H   9)    -52.29 -0.001623    1.39    -50.90   
    55. D(H  10,C   3,C   2,C   1)   -115.97 -0.001255    0.80   -115.17   
    56. D(H  10,C   3,C   2,H   9)     64.43 -0.001101    0.71     65.13   
    57. D(H  11,C   3,C   2,C   1)      1.17 -0.000389    0.41      1.58   
    58. D(H  12,C   4,C   3,C   2)    177.33  0.000721   -0.46    176.87   
    59. D(H  12,C   4,C   3,H  10)     57.19  0.000839   -0.49     56.70   
    60. D(H  12,C   4,C   3,H  11)    -57.04 -0.001206    0.76    -56.28   
    61. D(H  13,C   4,C   3,C   2)    -62.85  0.000657   -0.47    -63.32   
    62. D(H  13,C   4,C   3,H  10)    177.02  0.000775   -0.50    176.51   
    63. D(H  13,C   4,C   3,H  11)     62.78 -0.001270    0.76     63.53   
    64. D(O  15,H  10,C   3,C   2)      3.33  0.000078    0.02      3.36   
    65. D(O  15,H  10,C   3,C   4)    125.57 -0.000916    0.44    126.01   
    66. D(O  15,H  10,C   3,H  11)   -116.48  0.000365   -0.16   -116.64   
    67. C_Y(C   3)                     -0.84 -0.007968    0.00     -0.84 C 
    68. C_X(C   3)                     -1.15 -0.002406    0.00     -1.15 C 
    69. C_Z(C   3)                     -0.08 -0.015991   -0.00     -0.08 C 
    70. C_Z(H  10)                     -0.95  0.009497    0.00     -0.95 C 
    71. C_X(H  10)                     -1.47 -0.000094   -0.00     -1.47 C 
    72. C_Y(H  10)                     -1.41  0.003681   -0.00     -1.41 C 
    73. C_Z(O  15)                     -2.24  0.006494   -0.00     -2.24 C 
    74. C_Y(O  15)                     -1.93  0.004287   -0.00     -1.93 C 
    75. C_X(O  15)                     -1.50  0.002500   -0.00     -1.50 C 
    ----------------------------------------------------------------------------

Geometry step timings:
Preparation and reading OPT file:      0.000 s ( 0.157 %)
Internal coordinates            :      0.000 s ( 0.249 %)
B/P matrices and projection     :      0.002 s (13.279 %)
Hessian update/contruction      :      0.005 s (42.810 %)
Making the step                 :      0.001 s (10.785 %)
Converting the step to Cartesian:      0.000 s ( 1.657 %)
Storing new data                :      0.000 s ( 0.207 %)
Checking convergence            :      0.000 s ( 0.282 %)
Final printing                  :      0.004 s (30.542 %)
Total time                      :      0.012 s

Time for energy+gradient        :      0.042 s
Time for complete geometry iter :      0.069 s

         *************************************************************
         *                GEOMETRY OPTIMIZATION CYCLE   5            *
         *************************************************************
---------------------------------
CARTESIAN COORDINATES (ANGSTROEM)
---------------------------------
  C     2.440287    0.594286   -0.154244
  C     1.244220   -0.225006    0.151108
  C     0.033688   -0.046967   -0.396924
  C    -1.149753   -0.840407   -0.078009
  C    -2.373398   -0.017842    0.280525
  H     3.235015   -0.043900   -0.544358
  H     2.216663    1.367447   -0.885946
  H     2.820130    1.063319    0.754656
  H     1.390873   -1.013729    0.878665
  H    -0.105684    0.739066   -1.129325
  H    -1.474726   -1.407278   -0.946451
  H    -0.924232   -1.586855    0.692924
  H    -3.233321   -0.660234    0.453436
  H    -2.178244    0.553691    1.190013
  H    -2.618500    0.682621   -0.515344
  O    -1.495615   -1.933353   -2.243682
  H    -0.869307   -1.779826   -2.942942

----------------------------
CARTESIAN COORDINATES (A.U.)
----------------------------
  NO LB    ZA    FRAG    MASS        X           Y           Z
   0 C   6.0000    0    12.011    4.611474    1.123038   -0.291479
   1 C   6.0000    0    12.011    2.351236   -0.425199    0.285553
   2 C   6.0000    0    12.011    0.063662   -0.088755   -0.750078
   3 C   6.0000    0    12.011   -2.172718   -1.588138   -0.147416
   4 C   6.0000    0    12.011   -4.485072   -0.033717    0.530115
   5 H   1.0000    0     1.008    6.113293   -0.082960   -1.028688
   6 H   1.0000    0     1.008    4.188885    2.584099   -1.674196
   7 H   1.0000    0     1.008    5.329274    2.009381    1.426094
   8 H   1.0000    0     1.008    2.628369   -1.915670    1.660437
   9 H   1.0000    0     1.008   -0.199714    1.396633   -2.134114
  10 H   1.0000    0     1.008   -2.786828   -2.659370   -1.788533
  11 H   1.0000    0     1.008   -1.746546   -2.998721    1.309437
  12 H   1.0000    0     1.008   -6.110091   -1.247661    0.856870
  13 H   1.0000    0     1.008   -4.116284    1.046324    2.248798
  14 H   1.0000    0     1.008   -4.948248    1.289966   -0.973860
  15 O   8.0000    0    15.999   -2.826303   -3.653509   -4.239944
  16 H   1.0000    0     1.008   -1.642752   -3.363384   -5.561354

      -----------------------------------------------------------      
     |                   =====================                   |     
     |                           x T B                           |     
     |                   =====================                   |     
     |                         S. Grimme                         |     
     |          Mulliken Center for Theoretical Chemistry        |     
     |                    University of Bonn                     |     
      -----------------------------------------------------------      

   * xtb version 6.7.1 (edcfbbe) compiled by 'albert@albert-system' on 2024-07-22

   xtb is free software: you can redistribute it and/or modify it under
   the terms of the GNU Lesser General Public License as published by
   the Free Software Foundation, either version 3 of the License, or
   (at your option) any later version.
   
   xtb is distributed in the hope that it will be useful,
   but WITHOUT ANY WARRANTY; without even the implied warranty of
   MERCHANTABILITY or FITNESS FOR A PARTICULAR PURPOSE.  See the
   GNU Lesser General Public License for more details.
   
   Cite this work as:
   * C. Bannwarth, E. Caldeweyher, S. Ehlert, A. Hansen, P. Pracht,
     J. Seibert, S. Spicher, S. Grimme, WIREs Comput. Mol. Sci., 2020, 11,
     e01493. DOI: 10.1002/wcms.1493
   
   for GFN2-xTB:
   * C. Bannwarth, S. Ehlert and S. Grimme., J. Chem. Theory Comput., 2019,
     15, 1652-1671. DOI: 10.1021/acs.jctc.8b01176
   for GFN1-xTB:
   * S. Grimme, C. Bannwarth, P. Shushkov, J. Chem. Theory Comput., 2017,
     13, 1989-2009. DOI: 10.1021/acs.jctc.7b00118
   for GFN0-xTB:
   * P. Pracht, E. Caldeweyher, S. Ehlert, S. Grimme, ChemRxiv, 2019, preprint.
     DOI: 10.26434/chemrxiv.8326202.v1
   for GFN-FF:
   * S. Spicher and S. Grimme, Angew. Chem. Int. Ed., 2020, 59, 15665-15673.
     DOI: 10.1002/anie.202004239
   
   for ALPB and GBSA implicit solvation:
   * S. Ehlert, M. Stahn, S. Spicher, S. Grimme, J. Chem. Theory Comput.,
     2021, 17, 4250-4261. DOI: 10.1021/acs.jctc.1c00471
   
   for ddCOSMO and CPCM-X implicit solvation:
   * M. Stahn, S. Ehlert, S. Grimme, J. Phys. Chem. A,
     2023, XX, XXXX-XXXX. DOI: 10.1021/acs.jpca.3c04382
   
   for DFT-D4:
   * E. Caldeweyher, C. Bannwarth and S. Grimme, J. Chem. Phys., 2017,
     147, 034112. DOI: 10.1063/1.4993215
   * E. Caldeweyher, S. Ehlert, A. Hansen, H. Neugebauer, S. Spicher,
     C. Bannwarth and S. Grimme, J. Chem. Phys., 2019, 150, 154122.
     DOI: 10.1063/1.5090222
   * E. Caldeweyher, J.-M. Mewes, S. Ehlert and S. Grimme, Phys. Chem. Chem. Phys.
     2020, 22, 8499-8512. DOI: 10.1039/D0CP00502A
   
   for sTDA-xTB:
   * S. Grimme and C. Bannwarth, J. Chem. Phys., 2016, 145, 054103.
     DOI: 10.1063/1.4959605
   
   in the mass-spec context:
   * V. Asgeirsson, C. Bauer and S. Grimme, Chem. Sci., 2017, 8, 4879.
     DOI: 10.1039/c7sc00601b
   * J. Koopman and S. Grimme, ACS Omega 2019, 4, 12, 15120-15133.
     DOI: 10.1021/acsomega.9b02011
   
   for metadynamics refer to:
   * S. Grimme, J. Chem. Theory Comput., 2019, 155, 2847-2862
     DOI: 10.1021/acs.jctc.9b00143
   
   for SPH calculations refer to:
   * S. Spicher and S. Grimme, J. Chem. Theory Comput., 2021, 17, 1701-1714
     DOI: 10.1021/acs.jctc.0c01306
   
   for ONIOM refer to:
   * C. Plett, A. Katbashev, S. Ehlert, S. Grimme, M. Bursch,
     Phys. Chem. Chem. Phys., 2023, 25, 17860-17868. DOI: 10.1039/D3CP02178E
   
   for DIPRO refer to:
   * J. Kohn, N. Gildemeister, S. Grimme, D. Fazzi, A. Hansen,
     J. Chem. Phys., 2023, just accepted.
   
   for PTB refer to:
   * S. Grimme, M. Mueller, A. Hansen, J. Chem. Phys., 2023, 158, 124111.
     DOI: 10.1063/5.0137838
   
   with help from (in alphabetical order)
   P. Atkinson, C. Bannwarth, F. Bohle, G. Brandenburg, E. Caldeweyher
   M. Checinski, S. Dohm, S. Ehlert, S. Ehrlich, I. Gerasimov, C. Hölzer
   A. Katbashev, J. Kohn, J. Koopman, C. Lavigne, S. Lehtola, F. März, M. Müller,
   F. Musil, H. Neugebauer, J. Pisarek, C. Plett, P. Pracht, F. Pultar,
   J. Seibert, P. Shushkov, S. Spicher, M. Stahn, M. Steiner, T. Strunk,
   J. Stückrath, T. Rose, and J. Unsleber
   
 * started run on 2026/09/19 at 14:44:22.366     
   ID    Z sym.   atoms
    1    6 C      1-5
    2    1 H      6-15, 17
    3    8 O      16

           -------------------------------------------------
          |                Calculation Setup                |
           -------------------------------------------------

          program call               : /apps/eb/ORCA/6.1.1-gompi-2023b-avx2/bin/otool_xtb opt_XTB.xyz --grad -c 0 -u 1 -P 8 --namespace opt --input opt_XTB.input.tmp --acc 0.200000
          hostname                   : a1-8
          calculation namespace      : opt
          coordinate file            : opt_XTB.xyz
          omp threads                :                     8


molecular fragmentation (1/2 indicates fragments):
11111111111111122
# atoms in fragment 1/2:    15     2
 fragment masses (1/2) :       70.13       17.01
CMA distance (Bohr)    :   6.151
constraining FC (au)   :  0.0500

           -------------------------------------------------
          |                 G F N 2 - x T B                 |
           -------------------------------------------------

        Reference                      10.1021/acs.jctc.8b01176
      * Hamiltonian:
        H0-scaling (s, p, d)           1.850000    2.230000    2.230000
        zeta-weighting                 0.500000
      * Dispersion:
        s8                             2.700000
        a1                             0.520000
        a2                             5.000000
        s9                             5.000000
      * Repulsion:
        kExp                           1.500000    1.000000
        rExp                           1.000000
      * Coulomb:
        alpha                          2.000000
        third order                    shell-resolved
        anisotropic                    true
        a3                             3.000000
        a5                             4.000000
        cn-shift                       1.200000
        cn-exp                         4.000000
        max-rad                        5.000000

q/qsh data taken from xtbrestart
CAMM data taken from xtbrestart

          ...................................................
          :                      SETUP                      :
          :.................................................:
          :  # basis functions                  35          :
          :  # atomic orbitals                  35          :
          :  # shells                           23          :
          :  # electrons                        37          :
          :  max. iterations                   250          :
          :  Hamiltonian                  GFN2-xTB          :
          :  restarted?                       true          :
          :  GBSA solvation                  false          :
          :  PC potential                    false          :
          :  electronic temp.          300.0000000     K    :
          :  accuracy                    0.2000000          :
          :  -> integral cutoff          0.3198970E+02      :
          :  -> integral neglect         0.2000000E-08      :
          :  -> SCF convergence          0.2000000E-06 Eh   :
          :  -> wf. convergence          0.2000000E-04 e    :
          :  Broyden damping             0.4000000          :
          :  net charge                          0          :
          :  unpaired electrons                  1          :
          ...................................................

 iter      E             dE          RMSdq      gap      omega  full diag
   1    -20.5328042 -0.205328E+02  0.344E-01    3.72       0.0  T
   2    -20.5328833 -0.790764E-04  0.212E-01    3.83       1.0  T
   3    -20.5327598  0.123517E-03  0.131E-01    3.72       1.0  T
   4    -20.5329537 -0.193949E-03  0.277E-02    3.79       1.0  T
   5    -20.5329639 -0.102032E-04  0.719E-03    3.79       3.4  T
   6    -20.5329640 -0.102383E-06  0.381E-03    3.79       6.4  T
   7    -20.5329641 -0.920495E-07  0.115E-03    3.79      21.1  T
   8    -20.5329641 -0.389093E-08  0.476E-04    3.79      51.0  T
   9    -20.5329641 -0.659170E-09  0.147E-04    3.79     164.6  T
  10    -20.5329641 -0.752145E-10  0.494E-05    3.79     491.3  T

   *** convergence criteria satisfied after 10 iterations ***

         #    Occupation            Energy/Eh            Energy/eV
      -------------------------------------------------------------
         1        2.0000           -0.6422170             -17.4756
       ...           ...                  ...                  ...
        13        2.0000           -0.4698189             -12.7844
        14        2.0000           -0.4544641             -12.3666
        15        2.0000           -0.4436939             -12.0735
        16        2.0000           -0.4416167             -12.0170
        17        2.0000           -0.4063898             -11.0584
        18        2.0000           -0.3921007             -10.6696
        19        1.0000           -0.3501977              -9.5294 (HOMO)
        20                         -0.2108955              -5.7388 (LUMO)
        21                          0.0947863               2.5793
        22                          0.1007728               2.7422
        23                          0.1398014               3.8042
        24                          0.1626751               4.4266
       ...                                ...                  ...
        35                          0.5908731              16.0785
      -------------------------------------------------------------
                  HL-Gap            0.1393022 Eh            3.7906 eV
             Fermi-level           -0.3258479 Eh           -8.8668 eV

 SCC (total)                   0 d,  0 h,  0 min,  0.015 sec
 SCC setup                      ...        0 min,  0.000 sec (  1.313%)
 Dispersion                     ...        0 min,  0.000 sec (  1.396%)
 classical contributions        ...        0 min,  0.000 sec (  0.777%)
 integral evaluation            ...        0 min,  0.001 sec (  5.796%)
 iterations                     ...        0 min,  0.011 sec ( 73.519%)
 molecular gradient             ...        0 min,  0.002 sec ( 14.067%)
 printout                       ...        0 min,  0.000 sec (  2.998%)

         :::::::::::::::::::::::::::::::::::::::::::::::::::::
         ::                     SUMMARY                     ::
         :::::::::::::::::::::::::::::::::::::::::::::::::::::
         :: total energy             -20.243553151569 Eh    ::
         :: gradient norm              0.073947373505 Eh/a0 ::
         :: HOMO-LUMO gap              3.790604911204 eV    ::
         ::.................................................::
         :: SCC energy               -20.532938313160 Eh    ::
         :: -> isotropic ES            0.047019303277 Eh    ::
         :: -> anisotropic ES         -0.002444906759 Eh    ::
         :: -> anisotropic XC          0.010099961406 Eh    ::
         :: -> dispersion             -0.008424163264 Eh    ::
         :: repulsion energy           0.289385161592 Eh    ::
         :: add. restraining           0.000000000000 Eh    ::
         :: total charge              -0.000000000000 e     ::
         :::::::::::::::::::::::::::::::::::::::::::::::::::::


Property printout bound to 'properties.out'

           -------------------------------------------------
          | TOTAL ENERGY              -20.243553151569 Eh   |
          | GRADIENT NORM               0.073947373505 Eh/α |
          | HOMO-LUMO GAP               3.790604911204 eV   |
           -------------------------------------------------

------------------------------------------------------------------------
 * finished run on 2026/09/19 at 14:44:22.425     
------------------------------------------------------------------------
 total:
 * wall-time:     0 d,  0 h,  0 min,  0.059 sec
 *  cpu-time:     0 d,  0 h,  0 min,  0.270 sec
 * ratio c/w:     4.605 speedup
 SCF:
 * wall-time:     0 d,  0 h,  0 min,  0.015 sec
 *  cpu-time:     0 d,  0 h,  0 min,  0.073 sec
 * ratio c/w:     4.963 speedup


-------------------------   --------------------
FINAL SINGLE POINT ENERGY       -20.243553151570
-------------------------   --------------------


-------------
DIPOLE MOMENT
-------------
                                X             Y             Z
Total Dipole Moment    :      0.87100       0.90300       0.75800
                        -----------------------------------------
Magnitude (a.u.)       :      1.46582
Magnitude (Debye)      :      3.72581


------------------
CARTESIAN GRADIENT
------------------

   1   C   :   -0.002750217   -0.001534155    0.000898296
   2   C   :    0.008593279    0.002085286    0.002963347
   3   C   :   -0.008917518   -0.002265703   -0.001025914
   4   C   :   -0.009016896   -0.019383303   -0.044037106
   5   C   :    0.001921948   -0.001860117   -0.000463314
   6   H   :    0.000038043   -0.000598950   -0.000068661
   7   H   :   -0.000154455    0.000260252   -0.000344651
   8   H   :    0.000061954    0.000020389    0.000496026
   9   H   :    0.000433507   -0.000010314    0.000118489
  10   H   :   -0.000102608   -0.000894790   -0.001142794
  11   H   :   -0.001568524    0.018003854    0.043525262
  12   H   :    0.001288452   -0.000544338    0.001245823
  13   H   :   -0.000269614   -0.000169166    0.000068866
  14   H   :    0.000659389    0.000309697    0.000464880
  15   H   :   -0.000287698    0.000324132   -0.000203732
  16   O   :    0.018474768    0.013264996    0.001227487
  17   H   :   -0.008403812   -0.007007769   -0.003722305

Difference to translation invariance:
           :   -0.0000000000    0.0000000000    0.0000000000

Difference to rotation invariance:
           :    0.0000003881   -0.0000005171    0.0000002096

Norm of the Cartesian gradient     ...    0.0739473735
RMS gradient                       ...    0.0103547034
MAX gradient                       ...    0.0440371059
------------------------------------------------------------------------------
                         ORCA GEOMETRY RELAXATION STEP
------------------------------------------------------------------------------

Reading the OPT-File                    .... done
Getting information on internals        .... done
Copying old internal coords+grads       .... done
Making the new internal coordinates     .... (2022 redundants) done
Validating the new internal coordinates .... (2022 redundants) done
Calculating the B-matrix                .... done
Calculating the G,G- and P matrices     .... done
Transforming gradient to internals      .... done
Projecting the internal gradient        .... done
Number of atoms                         ....  17
Number of internal coordinates          ....  75
Current Energy                          ....   -20.243553152 Eh
Current gradient norm                   ....     0.073947374 Eh/bohr
Maximum allowed component of the step   ....  0.300
Current trust radius                    ....  0.450
Updating the Hessian (BFGS)             .... done
Forming the augmented Hessian           .... done
Diagonalizing the augmented Hessian     .... done
Last element of RFO vector              ....  0.903011446
Lowest eigenvalues of augmented Hessian:
 -0.009399891  0.010001015  0.010781712  0.010950834  0.029229646
Length of the computed step             ....  0.475759740
Warning: the length of the step is outside the trust region - taking restricted step instead
The input lambda is                     ....     0.008998
   iter:   5  x=   -0.004211  g=   51.946577 f(x)=     0.281744
   iter:  10  x=   -0.011579  g=    9.970146 f(x)=     0.000000
The output lambda is                    ....    -0.011579 (11 iterations)
The final length of the internal step   ....  0.335185843
Converting the step to Cartesian space:
 Initial RMS(Int)=    0.0387039273
Transforming coordinates:
 Iter   0:  RMS(Cart)=    0.0988531141 RMS(Int)=    0.0389832645
 Iter   5:  RMS(Cart)=    0.0000902816 RMS(Int)=    0.0000482768
 Iter  10:  RMS(Cart)=    0.0000006818 RMS(Int)=    0.0000003458
Imposing constraints:
 Iter   0:  RMS(Cart)=    0.0000000000 RMS(Int)=    0.0000000000
CONVERGED
done
Storing new coordinates                 .... done
The predicted energy change is          ....    -0.004439724
Previously predicted energy change      ....    -0.007933957
Actually observed energy change         ....    -0.007923858
Ratio of predicted to observed change   ....     0.998727178
New trust radius                        ....     0.675000000

                                .--------------------.
          ----------------------|Geometry convergence|-------------------------
          Item                value                   Tolerance       Converged
          ---------------------------------------------------------------------
          Energy change      -0.0079238583            0.0000050000      NO
          RMS gradient        0.0025910636            0.0001000000      NO
          MAX gradient        0.0195365560            0.0003000000      NO
          RMS step            0.0387039273            0.0020000000      NO
          MAX step            0.3000000000            0.0040000000      NO
          -------------------------------------------------------------------------
          ........................................................
          Max(Bonds)      0.0065      Max(Angles)   17.19
          Max(Dihed)        4.12      Max(Improp)    0.00
          ---------------------------------------------------------------------

The optimization has not yet converged - more geometry cycles are needed


    ---------------------------------------------------------------------------
                         Redundant Internal Coordinates
                            (Angstroem and degrees)

        Definition                    Value    dE/dq     Step     New-Value
    ----------------------------------------------------------------------------
     1. B(C   1,C   0)                1.4816 -0.003491  0.0050    1.4865   
     2. B(C   2,C   1)                1.3407  0.007249 -0.0065    1.3342   
     3. B(C   3,C   2)                1.4601 -0.004278  0.0036    1.4637   
     4. B(C   4,C   3)                1.5174 -0.002420  0.0030    1.5204   
     5. B(H   5,C   0)                1.0914  0.000402 -0.0005    1.0908   
     6. B(H   6,C   0)                1.0877  0.000449 -0.0010    1.0868   
     7. B(H   7,C   0)                1.0910  0.000444 -0.0009    1.0902   
     8. B(H   8,C   1)                1.0830  0.000146 -0.0001    1.0830   
     9. B(H   9,C   2)                1.0834  0.000137  0.0003    1.0836   
    10. B(H  10,C   3)                1.0868 -0.029721 -0.0000    1.0868   
    11. B(H  11,C   3)                1.0965  0.001511 -0.0031    1.0934   
    12. B(H  12,C   4)                1.0872  0.000324 -0.0009    1.0863   
    13. B(H  13,C   4)                1.0917  0.000667 -0.0008    1.0909   
    14. B(H  14,C   4)                1.0882  0.000422 -0.0009    1.0873   
    15. B(O  15,H  10)                1.4000  0.006015  0.0000    1.4000   
    16. B(H  16,O  15)                0.9512 -0.003928  0.0035    0.9547   
    17. A(H   5,C   0,H   7)          107.20  0.000228   -0.16    107.04   
    18. A(C   1,C   0,H   7)          110.31 -0.000179    0.04    110.35   
    19. A(H   6,C   0,H   7)          109.05  0.000254   -0.14    108.91   
    20. A(C   1,C   0,H   6)          111.45  0.000112    0.18    111.63   
    21. A(H   5,C   0,H   6)          108.96  0.000270   -0.11    108.85   
    22. A(C   1,C   0,H   5)          109.77 -0.000668    0.17    109.93   
    23. A(C   0,C   1,C   2)          124.84  0.000370    0.09    124.93   
    24. A(C   2,C   1,H   8)          119.58  0.000249   -0.33    119.25   
    25. A(C   0,C   1,H   8)          115.59 -0.000619    0.24    115.82   
    26. A(C   1,C   2,C   3)          124.78  0.000498    0.01    124.79   
    27. A(C   1,C   2,H   9)          119.27  0.000183   -0.46    118.80   
    28. A(C   3,C   2,H   9)          115.96 -0.000682    0.45    116.41   
    29. A(C   2,C   3,C   4)          114.25  0.000211    0.63    114.87   
    30. A(C   2,C   3,H  10)          110.57  0.000511    0.06    110.62   
    31. A(C   4,C   3,H  10)          103.32 -0.000578   -0.83    102.49   
    32. A(C   2,C   3,H  11)          110.90 -0.000949    0.59    111.50   
    33. A(C   4,C   3,H  11)          111.64  0.000130    0.15    111.79   
    34. A(H  10,C   3,H  11)          105.56  0.000790   -0.83    104.73   
    35. A(C   3,C   4,H  12)          110.80  0.000185    0.00    110.80   
    36. A(C   3,C   4,H  13)          109.66 -0.000878    0.30    109.97   
    37. A(H  12,C   4,H  13)          108.55  0.000316   -0.15    108.40   
    38. A(C   3,C   4,H  14)          110.96  0.000432   -0.08    110.89   
    39. A(H  12,C   4,H  14)          108.57 -0.000065   -0.01    108.57   
    40. A(H  13,C   4,H  14)          108.21  0.000014   -0.08    108.13   
    41. A(C   3,H  10,O  15)          160.20 -0.004974   -0.00    160.20   
    42. L(H  10,O  15,H  16,C   3, 1) 127.64  0.019537  -17.19    110.45   
    43. L(H  10,O  15,H  16,C   3, 2) 179.84  0.000142   -0.12    179.71   
    44. D(C   2,C   1,C   0,H   5)   -120.83 -0.000054   -0.05   -120.88   
    45. D(C   2,C   1,C   0,H   6)     -0.02 -0.000091    0.04      0.01   
    46. D(H   8,C   1,C   0,H   5)     59.53  0.000011   -0.09     59.44   
    47. D(H   8,C   1,C   0,H   6)   -179.66 -0.000026   -0.00   -179.66   
    48. D(C   2,C   1,C   0,H   7)    121.27  0.000183    0.01    121.28   
    49. D(C   3,C   2,C   1,C   0)   -178.89  0.000117   -0.18   -179.07   
    50. D(C   3,C   2,C   1,H   8)      0.73  0.000048   -0.14      0.60   
    51. D(H   9,C   2,C   1,C   0)      0.80  0.000051   -0.10      0.70   
    52. D(H   9,C   2,C   1,H   8)   -179.57 -0.000018   -0.05   -179.63   
    53. D(C   4,C   3,C   2,C   1)    128.80 -0.001195    4.12    132.93   
    54. D(C   4,C   3,C   2,H   9)    -50.90 -0.001133    4.05    -46.85   
    55. D(H  10,C   3,C   2,C   1)   -115.16 -0.001444    3.50   -111.67   
    56. D(H  10,C   3,C   2,H   9)     65.13 -0.001382    3.42     68.55   
    57. D(H  11,C   3,C   2,C   1)      1.58 -0.000736    2.88      4.46   
    58. D(H  12,C   4,C   3,C   2)    176.87  0.000568   -0.82    176.05   
    59. D(H  12,C   4,C   3,H  10)     56.70  0.000212   -0.64     56.06   
    60. D(H  12,C   4,C   3,H  11)    -56.29 -0.000451    0.69    -55.60   
    61. D(H  13,C   4,C   3,C   2)    -63.32  0.000512   -0.81    -64.13   
    62. D(H  13,C   4,C   3,H  10)    176.51  0.000156   -0.63    175.88   
    63. D(H  13,C   4,C   3,H  11)     63.53 -0.000507    0.69     64.22   
    64. D(O  15,H  10,C   3,C   2)      3.36 -0.000361    0.21      3.56   
    65. D(O  15,H  10,C   3,C   4)    126.01 -0.000189    0.46    126.47   
    66. D(O  15,H  10,C   3,H  11)   -116.65  0.000029   -0.04   -116.68   
    67. C_Y(C   3)                     -0.84 -0.008280   -0.00     -0.84 C 
    68. C_X(C   3)                     -1.15 -0.002575   -0.00     -1.15 C 
    69. C_Z(C   3)                     -0.08 -0.016486   -0.00     -0.08 C 
    70. C_Z(H  10)                     -0.95  0.011348    0.00     -0.95 C 
    71. C_X(H  10)                     -1.47  0.000086    0.00     -1.47 C 
    72. C_Y(H  10)                     -1.41  0.004535    0.00     -1.41 C 
    73. C_Z(O  15)                     -2.24  0.005138   -0.00     -2.24 C 
    74. C_Y(O  15)                     -1.93  0.003745   -0.00     -1.93 C 
    75. C_X(O  15)                     -1.50  0.002489    0.00     -1.50 C 
    ----------------------------------------------------------------------------

Geometry step timings:
Preparation and reading OPT file:      0.000 s ( 0.166 %)
Internal coordinates            :      0.000 s ( 0.232 %)
B/P matrices and projection     :      0.002 s (13.764 %)
Hessian update/contruction      :      0.006 s (48.436 %)
Making the step                 :      0.001 s (10.619 %)
Converting the step to Cartesian:      0.000 s ( 1.357 %)
Storing new data                :      0.000 s ( 0.207 %)
Checking convergence            :      0.000 s ( 0.306 %)
Final printing                  :      0.003 s (24.905 %)
Total time                      :      0.012 s

Time for energy+gradient        :      0.071 s
Time for complete geometry iter :      0.098 s

         *************************************************************
         *                GEOMETRY OPTIMIZATION CYCLE   6            *
         *************************************************************
---------------------------------
CARTESIAN COORDINATES (ANGSTROEM)
---------------------------------
  C     2.454349    0.565082   -0.212095
  C     1.254416   -0.256744    0.095435
  C     0.033742   -0.040838   -0.397938
  C    -1.149753   -0.840407   -0.078009
  C    -2.390582   -0.034268    0.271556
  H     3.228749   -0.060003   -0.658758
  H     2.219810    1.376144   -0.896365
  H     2.871314    0.984832    0.703578
  H     1.410849   -1.083033    0.777772
  H    -0.113356    0.784263   -1.084840
  H    -1.474726   -1.407278   -0.946451
  H    -0.929609   -1.596172    0.680919
  H    -3.243733   -0.688044    0.429089
  H    -2.219464    0.535034    1.186250
  H    -2.633848    0.667035   -0.522959
  O    -1.495615   -1.933353   -2.243682
  H    -0.745497   -1.618623   -2.743393

----------------------------
CARTESIAN COORDINATES (A.U.)
----------------------------
  NO LB    ZA    FRAG    MASS        X           Y           Z
   0 C   6.0000    0    12.011    4.638047    1.067850   -0.400801
   1 C   6.0000    0    12.011    2.370503   -0.485177    0.180345
   2 C   6.0000    0    12.011    0.063764   -0.077173   -0.751993
   3 C   6.0000    0    12.011   -2.172718   -1.588138   -0.147416
   4 C   6.0000    0    12.011   -4.517546   -0.064756    0.513166
   5 H   1.0000    0     1.008    6.101452   -0.113390   -1.244873
   6 H   1.0000    0     1.008    4.194833    2.600536   -1.693885
   7 H   1.0000    0     1.008    5.425998    1.861062    1.329570
   8 H   1.0000    0     1.008    2.666119   -2.046635    1.469776
   9 H   1.0000    0     1.008   -0.214212    1.482042   -2.050050
  10 H   1.0000    0     1.008   -2.786828   -2.659370   -1.788533
  11 H   1.0000    0     1.008   -1.756706   -3.016328    1.286751
  12 H   1.0000    0     1.008   -6.129767   -1.300215    0.810861
  13 H   1.0000    0     1.008   -4.194179    1.011068    2.241688
  14 H   1.0000    0     1.008   -4.977251    1.260514   -0.988250
  15 O   8.0000    0    15.999   -2.826303   -3.653509   -4.239944
  16 H   1.0000    0     1.008   -1.408786   -3.058754   -5.184261

      -----------------------------------------------------------      
     |                   =====================                   |     
     |                           x T B                           |     
     |                   =====================                   |     
     |                         S. Grimme                         |     
     |          Mulliken Center for Theoretical Chemistry        |     
     |                    University of Bonn                     |     
      -----------------------------------------------------------      

   * xtb version 6.7.1 (edcfbbe) compiled by 'albert@albert-system' on 2024-07-22

   xtb is free software: you can redistribute it and/or modify it under
   the terms of the GNU Lesser General Public License as published by
   the Free Software Foundation, either version 3 of the License, or
   (at your option) any later version.
   
   xtb is distributed in the hope that it will be useful,
   but WITHOUT ANY WARRANTY; without even the implied warranty of
   MERCHANTABILITY or FITNESS FOR A PARTICULAR PURPOSE.  See the
   GNU Lesser General Public License for more details.
   
   Cite this work as:
   * C. Bannwarth, E. Caldeweyher, S. Ehlert, A. Hansen, P. Pracht,
     J. Seibert, S. Spicher, S. Grimme, WIREs Comput. Mol. Sci., 2020, 11,
     e01493. DOI: 10.1002/wcms.1493
   
   for GFN2-xTB:
   * C. Bannwarth, S. Ehlert and S. Grimme., J. Chem. Theory Comput., 2019,
     15, 1652-1671. DOI: 10.1021/acs.jctc.8b01176
   for GFN1-xTB:
   * S. Grimme, C. Bannwarth, P. Shushkov, J. Chem. Theory Comput., 2017,
     13, 1989-2009. DOI: 10.1021/acs.jctc.7b00118
   for GFN0-xTB:
   * P. Pracht, E. Caldeweyher, S. Ehlert, S. Grimme, ChemRxiv, 2019, preprint.
     DOI: 10.26434/chemrxiv.8326202.v1
   for GFN-FF:
   * S. Spicher and S. Grimme, Angew. Chem. Int. Ed., 2020, 59, 15665-15673.
     DOI: 10.1002/anie.202004239
   
   for ALPB and GBSA implicit solvation:
   * S. Ehlert, M. Stahn, S. Spicher, S. Grimme, J. Chem. Theory Comput.,
     2021, 17, 4250-4261. DOI: 10.1021/acs.jctc.1c00471
   
   for ddCOSMO and CPCM-X implicit solvation:
   * M. Stahn, S. Ehlert, S. Grimme, J. Phys. Chem. A,
     2023, XX, XXXX-XXXX. DOI: 10.1021/acs.jpca.3c04382
   
   for DFT-D4:
   * E. Caldeweyher, C. Bannwarth and S. Grimme, J. Chem. Phys., 2017,
     147, 034112. DOI: 10.1063/1.4993215
   * E. Caldeweyher, S. Ehlert, A. Hansen, H. Neugebauer, S. Spicher,
     C. Bannwarth and S. Grimme, J. Chem. Phys., 2019, 150, 154122.
     DOI: 10.1063/1.5090222
   * E. Caldeweyher, J.-M. Mewes, S. Ehlert and S. Grimme, Phys. Chem. Chem. Phys.
     2020, 22, 8499-8512. DOI: 10.1039/D0CP00502A
   
   for sTDA-xTB:
   * S. Grimme and C. Bannwarth, J. Chem. Phys., 2016, 145, 054103.
     DOI: 10.1063/1.4959605
   
   in the mass-spec context:
   * V. Asgeirsson, C. Bauer and S. Grimme, Chem. Sci., 2017, 8, 4879.
     DOI: 10.1039/c7sc00601b
   * J. Koopman and S. Grimme, ACS Omega 2019, 4, 12, 15120-15133.
     DOI: 10.1021/acsomega.9b02011
   
   for metadynamics refer to:
   * S. Grimme, J. Chem. Theory Comput., 2019, 155, 2847-2862
     DOI: 10.1021/acs.jctc.9b00143
   
   for SPH calculations refer to:
   * S. Spicher and S. Grimme, J. Chem. Theory Comput., 2021, 17, 1701-1714
     DOI: 10.1021/acs.jctc.0c01306
   
   for ONIOM refer to:
   * C. Plett, A. Katbashev, S. Ehlert, S. Grimme, M. Bursch,
     Phys. Chem. Chem. Phys., 2023, 25, 17860-17868. DOI: 10.1039/D3CP02178E
   
   for DIPRO refer to:
   * J. Kohn, N. Gildemeister, S. Grimme, D. Fazzi, A. Hansen,
     J. Chem. Phys., 2023, just accepted.
   
   for PTB refer to:
   * S. Grimme, M. Mueller, A. Hansen, J. Chem. Phys., 2023, 158, 124111.
     DOI: 10.1063/5.0137838
   
   with help from (in alphabetical order)
   P. Atkinson, C. Bannwarth, F. Bohle, G. Brandenburg, E. Caldeweyher
   M. Checinski, S. Dohm, S. Ehlert, S. Ehrlich, I. Gerasimov, C. Hölzer
   A. Katbashev, J. Kohn, J. Koopman, C. Lavigne, S. Lehtola, F. März, M. Müller,
   F. Musil, H. Neugebauer, J. Pisarek, C. Plett, P. Pracht, F. Pultar,
   J. Seibert, P. Shushkov, S. Spicher, M. Stahn, M. Steiner, T. Strunk,
   J. Stückrath, T. Rose, and J. Unsleber
   
 * started run on 2026/09/19 at 14:44:22.464     
   ID    Z sym.   atoms
    1    6 C      1-5
    2    1 H      6-15, 17
    3    8 O      16

           -------------------------------------------------
          |                Calculation Setup                |
           -------------------------------------------------

          program call               : /apps/eb/ORCA/6.1.1-gompi-2023b-avx2/bin/otool_xtb opt_XTB.xyz --grad -c 0 -u 1 -P 8 --namespace opt --input opt_XTB.input.tmp --acc 0.200000
          hostname                   : a1-8
          calculation namespace      : opt
          coordinate file            : opt_XTB.xyz
          omp threads                :                     8


molecular fragmentation (1/2 indicates fragments):
11111111111111122
# atoms in fragment 1/2:    15     2
 fragment masses (1/2) :       70.13       17.01
CMA distance (Bohr)    :   6.072
constraining FC (au)   :  0.0500

           -------------------------------------------------
          |                 G F N 2 - x T B                 |
           -------------------------------------------------

        Reference                      10.1021/acs.jctc.8b01176
      * Hamiltonian:
        H0-scaling (s, p, d)           1.850000    2.230000    2.230000
        zeta-weighting                 0.500000
      * Dispersion:
        s8                             2.700000
        a1                             0.520000
        a2                             5.000000
        s9                             5.000000
      * Repulsion:
        kExp                           1.500000    1.000000
        rExp                           1.000000
      * Coulomb:
        alpha                          2.000000
        third order                    shell-resolved
        anisotropic                    true
        a3                             3.000000
        a5                             4.000000
        cn-shift                       1.200000
        cn-exp                         4.000000
        max-rad                        5.000000

q/qsh data taken from xtbrestart
CAMM data taken from xtbrestart

          ...................................................
          :                      SETUP                      :
          :.................................................:
          :  # basis functions                  35          :
          :  # atomic orbitals                  35          :
          :  # shells                           23          :
          :  # electrons                        37          :
          :  max. iterations                   250          :
          :  Hamiltonian                  GFN2-xTB          :
          :  restarted?                       true          :
          :  GBSA solvation                  false          :
          :  PC potential                    false          :
          :  electronic temp.          300.0000000     K    :
          :  accuracy                    0.2000000          :
          :  -> integral cutoff          0.3198970E+02      :
          :  -> integral neglect         0.2000000E-08      :
          :  -> SCF convergence          0.2000000E-06 Eh   :
          :  -> wf. convergence          0.2000000E-04 e    :
          :  Broyden damping             0.4000000          :
          :  net charge                          0          :
          :  unpaired electrons                  1          :
          ...................................................

 iter      E             dE          RMSdq      gap      omega  full diag
   1    -20.5382650 -0.205383E+02  0.432E-01    3.70       0.0  T
   2    -20.5383321 -0.671632E-04  0.257E-01    3.77       1.0  T
   3    -20.5382432  0.889333E-04  0.981E-02    3.70       1.0  T
   4    -20.5383628 -0.119605E-03  0.117E-02    3.75       2.1  T
   5    -20.5383632 -0.430533E-06  0.748E-03    3.75       3.2  T
   6    -20.5383636 -0.338788E-06  0.234E-03    3.75      10.4  T
   7    -20.5383636 -0.363432E-07  0.840E-04    3.75      28.9  T
   8    -20.5383636 -0.170454E-08  0.316E-04    3.75      76.7  T
   9    -20.5383636 -0.461370E-09  0.113E-04    3.75     213.9  T
  10    -20.5383636 -0.436557E-10  0.435E-05    3.75     557.0  T

   *** convergence criteria satisfied after 10 iterations ***

         #    Occupation            Energy/Eh            Energy/eV
      -------------------------------------------------------------
         1        2.0000           -0.6449988             -17.5513
       ...           ...                  ...                  ...
        13        2.0000           -0.4738916             -12.8952
        14        2.0000           -0.4571338             -12.4392
        15        2.0000           -0.4519699             -12.2987
        16        2.0000           -0.4442785             -12.0894
        17        2.0000           -0.4117690             -11.2048
        18        2.0000           -0.3953921             -10.7592
        19        1.0000           -0.3488458              -9.4926 (HOMO)
        20                         -0.2109804              -5.7411 (LUMO)
        21                          0.0855446               2.3278
        22                          0.0998602               2.7173
        23                          0.1352585               3.6806
        24                          0.1622587               4.4153
       ...                                ...                  ...
        35                          0.6004591              16.3393
      -------------------------------------------------------------
                  HL-Gap            0.1378653 Eh            3.7515 eV
             Fermi-level           -0.3260160 Eh           -8.8713 eV

 SCC (total)                   0 d,  0 h,  0 min,  0.015 sec
 SCC setup                      ...        0 min,  0.000 sec (  1.209%)
 Dispersion                     ...        0 min,  0.000 sec (  1.229%)
 classical contributions        ...        0 min,  0.000 sec (  0.627%)
 integral evaluation            ...        0 min,  0.000 sec (  3.246%)
 iterations                     ...        0 min,  0.012 sec ( 80.104%)
 molecular gradient             ...        0 min,  0.002 sec ( 10.391%)
 printout                       ...        0 min,  0.000 sec (  3.046%)

         :::::::::::::::::::::::::::::::::::::::::::::::::::::
         ::                     SUMMARY                     ::
         :::::::::::::::::::::::::::::::::::::::::::::::::::::
         :: total energy             -20.247905627446 Eh    ::
         :: gradient norm              0.074328030365 Eh/a0 ::
         :: HOMO-LUMO gap              3.751506802024 eV    ::
         ::.................................................::
         :: SCC energy               -20.538338494633 Eh    ::
         :: -> isotropic ES            0.046548650684 Eh    ::
         :: -> anisotropic ES         -0.001892337569 Eh    ::
         :: -> anisotropic XC          0.010185800088 Eh    ::
         :: -> dispersion             -0.008458066041 Eh    ::
         :: repulsion energy           0.290432867187 Eh    ::
         :: add. restraining           0.000000000000 Eh    ::
         :: total charge              -0.000000000000 e     ::
         :::::::::::::::::::::::::::::::::::::::::::::::::::::


Property printout bound to 'properties.out'

           -------------------------------------------------
          | TOTAL ENERGY              -20.247905627446 Eh   |
          | GRADIENT NORM               0.074328030365 Eh/α |
          | HOMO-LUMO GAP               3.751506802024 eV   |
           -------------------------------------------------

------------------------------------------------------------------------
 * finished run on 2026/09/19 at 14:44:22.505     
------------------------------------------------------------------------
 total:
 * wall-time:     0 d,  0 h,  0 min,  0.040 sec
 *  cpu-time:     0 d,  0 h,  0 min,  0.211 sec
 * ratio c/w:     5.225 speedup
 SCF:
 * wall-time:     0 d,  0 h,  0 min,  0.015 sec
 *  cpu-time:     0 d,  0 h,  0 min,  0.091 sec
 * ratio c/w:     5.949 speedup


-------------------------   --------------------
FINAL SINGLE POINT ENERGY       -20.247905627450
-------------------------   --------------------


-------------
DIPOLE MOMENT
-------------
                                X             Y             Z
Total Dipole Moment    :      0.93000       0.98500       0.88200
                        -----------------------------------------
Magnitude (a.u.)       :      1.61649
Magnitude (Debye)      :      4.10880


------------------
CARTESIAN GRADIENT
------------------

   1   C   :   -0.001012044    0.000266987    0.000118293
   2   C   :    0.000225649    0.002133194    0.000081941
   3   C   :   -0.000506595   -0.002591868    0.001079470
   4   C   :   -0.008146244   -0.023540599   -0.044239621
   5   C   :   -0.000395878   -0.001511241   -0.000534076
   6   H   :    0.000186439   -0.000044675    0.000029097
   7   H   :    0.000509769    0.000017979    0.000078222
   8   H   :    0.000257043   -0.000015546   -0.000122467
   9   H   :   -0.000579868   -0.000145057   -0.000110200
  10   H   :    0.001131839   -0.000420218   -0.000774042
  11   H   :    0.002799865    0.022660453    0.048011511
  12   H   :    0.000124985   -0.000210661   -0.000303446
  13   H   :   -0.000062875    0.000376869    0.000133347
  14   H   :    0.000081663    0.000158134    0.000019041
  15   H   :   -0.000233477    0.000069921    0.000272705
  16   O   :    0.007837293    0.004817220   -0.002029423
  17   H   :   -0.002217563   -0.002020891   -0.001710353

Difference to translation invariance:
           :    0.0000000000   -0.0000000000   -0.0000000000

Difference to rotation invariance:
           :    0.0000003808   -0.0000004449    0.0000001740

Norm of the Cartesian gradient     ...    0.0743280304
RMS gradient                       ...    0.0104080061
MAX gradient                       ...    0.0480115107
------------------------------------------------------------------------------
                         ORCA GEOMETRY RELAXATION STEP
------------------------------------------------------------------------------

Reading the OPT-File                    .... done
Getting information on internals        .... done
Copying old internal coords+grads       .... done
Making the new internal coordinates     .... (2022 redundants) done
Validating the new internal coordinates .... (2022 redundants) done
Calculating the B-matrix                .... done
Calculating the G,G- and P matrices     .... done
Transforming gradient to internals      .... done
Projecting the internal gradient        .... done
Number of atoms                         ....  17
Number of internal coordinates          ....  75
Current Energy                          ....   -20.247905627 Eh
Current gradient norm                   ....     0.074328030 Eh/bohr
Maximum allowed component of the step   ....  0.300
Current trust radius                    ....  0.675
Updating the Hessian (BFGS)             .... done
Forming the augmented Hessian           .... done
Diagonalizing the augmented Hessian     .... done
Last element of RFO vector              ....  0.967857052
Lowest eigenvalues of augmented Hessian:
 -0.001237245  0.009999182  0.010551681  0.010781729  0.029228484
Length of the computed step             ....  0.259853403
The final length of the internal step   ....  0.259853403
Converting the step to Cartesian space:
 Initial RMS(Int)=    0.0300052864
Transforming coordinates:
 Iter   0:  RMS(Cart)=    0.1185043124 RMS(Int)=    0.0300636500
 Iter   5:  RMS(Cart)=    0.0000058153 RMS(Int)=    0.0000026699
 Iter  10:  RMS(Cart)=    0.0000001985 RMS(Int)=    0.0000000908
Imposing constraints:
 Iter   0:  RMS(Cart)=    0.0000000000 RMS(Int)=    0.0000000000
CONVERGED
done
Storing new coordinates                 .... done
The predicted energy change is          ....    -0.000660394
Previously predicted energy change      ....    -0.004439724
Actually observed energy change         ....    -0.004352476
Ratio of predicted to observed change   ....     0.980348290
New trust radius                        ....     0.700000000

                                .--------------------.
          ----------------------|Geometry convergence|-------------------------
          Item                value                   Tolerance       Converged
          ---------------------------------------------------------------------
          Energy change      -0.0043524759            0.0000050000      NO
          RMS gradient        0.0008438470            0.0001000000      NO
          MAX gradient        0.0055952979            0.0003000000      NO
          RMS step            0.0300052864            0.0020000000      NO
          MAX step            0.1236350614            0.0040000000      NO
          -------------------------------------------------------------------------
          ........................................................
          Max(Bonds)      0.0024      Max(Angles)    7.08
          Max(Dihed)        6.03      Max(Improp)    0.00
          ---------------------------------------------------------------------

The optimization has not yet converged - more geometry cycles are needed


    ---------------------------------------------------------------------------
                         Redundant Internal Coordinates
                            (Angstroem and degrees)

        Definition                    Value    dE/dq     Step     New-Value
    ----------------------------------------------------------------------------
     1. B(C   1,C   0)                1.4865  0.000055  0.0002    1.4867   
     2. B(C   2,C   1)                1.3342 -0.000708 -0.0003    1.3339   
     3. B(C   3,C   2)                1.4637 -0.000348  0.0000    1.4637   
     4. B(C   4,C   3)                1.5204 -0.000007 -0.0000    1.5204   
     5. B(H   5,C   0)                1.0908  0.000146 -0.0003    1.0906   
     6. B(H   6,C   0)                1.0868 -0.000146  0.0001    1.0869   
     7. B(H   7,C   0)                1.0902 -0.000011 -0.0001    1.0901   
     8. B(H   8,C   1)                1.0830 -0.000043  0.0001    1.0831   
     9. B(H   9,C   2)                1.0836  0.000017  0.0002    1.0838   
    10. B(H  10,C   3)                1.0868 -0.032017 -0.0000    1.0868   
    11. B(H  11,C   3)                1.0934 -0.000040 -0.0004    1.0931   
    12. B(H  12,C   4)                1.0863 -0.000158  0.0001    1.0865   
    13. B(H  13,C   4)                1.0909  0.000111 -0.0002    1.0907   
    14. B(H  14,C   4)                1.0873 -0.000102  0.0001    1.0874   
    15. B(O  15,H  10)                1.4000  0.007982 -0.0000    1.4000   
    16. B(H  16,O  15)                0.9547 -0.001513  0.0024    0.9571   
    17. A(H   5,C   0,H   7)          107.04 -0.000317    0.06    107.10   
    18. A(C   1,C   0,H   7)          110.35  0.000204   -0.04    110.31   
    19. A(H   6,C   0,H   7)          108.91 -0.000259    0.00    108.91   
    20. A(C   1,C   0,H   6)          111.63  0.000737   -0.12    111.52   
    21. A(H   5,C   0,H   6)          108.85 -0.000267    0.03    108.88   
    22. A(C   1,C   0,H   5)          109.93 -0.000148    0.07    110.00   
    23. A(C   0,C   1,C   2)          124.93  0.000773   -0.09    124.84   
    24. A(C   2,C   1,H   8)          119.25 -0.001005    0.09    119.34   
    25. A(C   0,C   1,H   8)          115.82  0.000231   -0.00    115.82   
    26. A(C   1,C   2,C   3)          124.79  0.000752   -0.11    124.68   
    27. A(C   1,C   2,H   9)          118.80 -0.001344    0.11    118.91   
    28. A(C   3,C   2,H   9)          116.41  0.000592    0.00    116.41   
    29. A(C   2,C   3,C   4)          114.87  0.001116   -0.04    114.83   
    30. A(C   2,C   3,H  10)          110.61  0.001027   -0.26    110.35   
    31. A(C   4,C   3,H  10)          102.49 -0.001853    0.22    102.71   
    32. A(C   2,C   3,H  11)          111.50 -0.000686    0.25    111.74   
    33. A(C   4,C   3,H  11)          111.79 -0.000036    0.06    111.85   
    34. A(H  10,C   3,H  11)          104.73  0.000337   -0.31    104.42   
    35. A(C   3,C   4,H  12)          110.80  0.000535   -0.12    110.69   
    36. A(C   3,C   4,H  13)          109.97 -0.000281    0.13    110.10   
    37. A(H  12,C   4,H  13)          108.40 -0.000155    0.00    108.40   
    38. A(C   3,C   4,H  14)          110.89  0.000429   -0.11    110.78   
    39. A(H  12,C   4,H  14)          108.57 -0.000241    0.05    108.62   
    40. A(H  13,C   4,H  14)          108.13 -0.000318    0.04    108.18   
    41. A(C   3,H  10,O  15)          160.20 -0.005067   -0.00    160.20   
    42. L(H  10,O  15,H  16,C   3, 1) 110.45  0.005595   -7.08    103.37   
    43. L(H  10,O  15,H  16,C   3, 2) 179.71  0.000118   -0.08    179.63   
    44. D(C   2,C   1,C   0,H   5)   -120.88 -0.000124    0.03   -120.85   
    45. D(C   2,C   1,C   0,H   6)      0.01 -0.000076    0.03      0.05   
    46. D(H   8,C   1,C   0,H   5)     59.44 -0.000030   -0.07     59.37   
    47. D(H   8,C   1,C   0,H   6)   -179.66  0.000018   -0.06   -179.73   
    48. D(C   2,C   1,C   0,H   7)    121.28  0.000233   -0.07    121.21   
    49. D(C   3,C   2,C   1,C   0)   -179.07  0.000184   -0.34   -179.41   
    50. D(C   3,C   2,C   1,H   8)      0.60  0.000092   -0.24      0.36   
    51. D(H   9,C   2,C   1,C   0)      0.70  0.000081   -0.08      0.63   
    52. D(H   9,C   2,C   1,H   8)   -179.63 -0.000011    0.02   -179.60   
    53. D(C   4,C   3,C   2,C   1)    132.93 -0.000591    5.96    138.89   
    54. D(C   4,C   3,C   2,H   9)    -46.85 -0.000486    5.71    -41.14   
    55. D(H  10,C   3,C   2,C   1)   -111.67 -0.001528    6.03   -105.64   
    56. D(H  10,C   3,C   2,H   9)     68.55 -0.001424    5.78     74.33   
    57. D(H  11,C   3,C   2,C   1)      4.45 -0.000891    5.64     10.09   
    58. D(H  12,C   4,C   3,C   2)    176.06  0.000290   -0.61    175.45   
    59. D(H  12,C   4,C   3,H  10)     56.05 -0.000319   -0.38     55.67   
    60. D(H  12,C   4,C   3,H  11)    -55.60  0.000268   -0.20    -55.80   
    61. D(H  13,C   4,C   3,C   2)    -64.12  0.000256   -0.60    -64.72   
    62. D(H  13,C   4,C   3,H  10)    175.88 -0.000352   -0.37    175.51   
    63. D(H  13,C   4,C   3,H  11)     64.22  0.000235   -0.18     64.03   
    64. D(O  15,H  10,C   3,C   2)      3.56 -0.000449    0.18      3.74   
    65. D(O  15,H  10,C   3,C   4)    126.48  0.000296    0.11    126.59   
    66. D(O  15,H  10,C   3,H  11)   -116.69 -0.000369    0.22   -116.47   
    67. C_Y(C   3)                     -0.84 -0.008729   -0.00     -0.84 C 
    68. C_X(C   3)                     -1.15 -0.002802   -0.00     -1.15 C 
    69. C_Z(C   3)                     -0.08 -0.017226   -0.00     -0.08 C 
    70. C_Z(H  10)                     -0.95  0.012610    0.00     -0.95 C 
    71. C_X(H  10)                     -1.47  0.000288    0.00     -1.47 C 
    72. C_Y(H  10)                     -1.41  0.005173    0.00     -1.41 C 
    73. C_Z(O  15)                     -2.24  0.004616    0.00     -2.24 C 
    74. C_Y(O  15)                     -1.93  0.003556    0.00     -1.93 C 
    75. C_X(O  15)                     -1.50  0.002514   -0.00     -1.50 C 
    ----------------------------------------------------------------------------

Geometry step timings:
Preparation and reading OPT file:      0.000 s ( 0.157 %)
Internal coordinates            :      0.000 s ( 0.240 %)
B/P matrices and projection     :      0.002 s (13.282 %)
Hessian update/contruction      :      0.006 s (49.098 %)
Making the step                 :      0.001 s ( 5.793 %)
Converting the step to Cartesian:      0.000 s ( 1.614 %)
Storing new data                :      0.000 s ( 0.199 %)
Checking convergence            :      0.000 s ( 0.290 %)
Final printing                  :      0.004 s (29.311 %)
Total time                      :      0.012 s

Time for energy+gradient        :      0.053 s
Time for complete geometry iter :      0.081 s

         *************************************************************
         *                GEOMETRY OPTIMIZATION CYCLE   7            *
         *************************************************************
---------------------------------
CARTESIAN COORDINATES (ANGSTROEM)
---------------------------------
  C     2.473133    0.494988   -0.329951
  C     1.273118   -0.322140   -0.009496
  C     0.031096   -0.040061   -0.405824
  C    -1.149753   -0.840407   -0.078009
  C    -2.388637   -0.034174    0.278114
  H     3.201386   -0.108621   -0.872755
  H     2.215720    1.361907   -0.932881
  H     2.956552    0.833138    0.586723
  H     1.450140   -1.203543    0.594564
  H    -0.137176    0.840080   -1.015437
  H    -1.474726   -1.407278   -0.946451
  H    -0.927692   -1.600166    0.675810
  H    -3.241987   -0.689055    0.430782
  H    -2.218172    0.529004    1.196462
  H    -2.629978    0.671846   -0.512900
  O    -1.495615   -1.933353   -2.243682
  H    -0.712282   -1.559351   -2.646752

----------------------------
CARTESIAN COORDINATES (A.U.)
----------------------------
  NO LB    ZA    FRAG    MASS        X           Y           Z
   0 C   6.0000    0    12.011    4.673543    0.935392   -0.623516
   1 C   6.0000    0    12.011    2.405844   -0.608756   -0.017945
   2 C   6.0000    0    12.011    0.058763   -0.075704   -0.766896
   3 C   6.0000    0    12.011   -2.172718   -1.588138   -0.147416
   4 C   6.0000    0    12.011   -4.513870   -0.064580    0.525559
   5 H   1.0000    0     1.008    6.049743   -0.205263   -1.649269
   6 H   1.0000    0     1.008    4.187105    2.573631   -1.762889
   7 H   1.0000    0     1.008    5.587074    1.574402    1.108745
   8 H   1.0000    0     1.008    2.740367   -2.274366    1.123564
   9 H   1.0000    0     1.008   -0.259225    1.587522   -1.918898
  10 H   1.0000    0     1.008   -2.786828   -2.659370   -1.788533
  11 H   1.0000    0     1.008   -1.753085   -3.023876    1.277095
  12 H   1.0000    0     1.008   -6.126467   -1.302125    0.814059
  13 H   1.0000    0     1.008   -4.191737    0.999673    2.260986
  14 H   1.0000    0     1.008   -4.969937    1.269604   -0.969240
  15 O   8.0000    0    15.999   -2.826303   -3.653509   -4.239944
  16 H   1.0000    0     1.008   -1.346017   -2.946746   -5.001637

      -----------------------------------------------------------      
     |                   =====================                   |     
     |                           x T B                           |     
     |                   =====================                   |     
     |                         S. Grimme                         |     
     |          Mulliken Center for Theoretical Chemistry        |     
     |                    University of Bonn                     |     
      -----------------------------------------------------------      

   * xtb version 6.7.1 (edcfbbe) compiled by 'albert@albert-system' on 2024-07-22

   xtb is free software: you can redistribute it and/or modify it under
   the terms of the GNU Lesser General Public License as published by
   the Free Software Foundation, either version 3 of the License, or
   (at your option) any later version.
   
   xtb is distributed in the hope that it will be useful,
   but WITHOUT ANY WARRANTY; without even the implied warranty of
   MERCHANTABILITY or FITNESS FOR A PARTICULAR PURPOSE.  See the
   GNU Lesser General Public License for more details.
   
   Cite this work as:
   * C. Bannwarth, E. Caldeweyher, S. Ehlert, A. Hansen, P. Pracht,
     J. Seibert, S. Spicher, S. Grimme, WIREs Comput. Mol. Sci., 2020, 11,
     e01493. DOI: 10.1002/wcms.1493
   
   for GFN2-xTB:
   * C. Bannwarth, S. Ehlert and S. Grimme., J. Chem. Theory Comput., 2019,
     15, 1652-1671. DOI: 10.1021/acs.jctc.8b01176
   for GFN1-xTB:
   * S. Grimme, C. Bannwarth, P. Shushkov, J. Chem. Theory Comput., 2017,
     13, 1989-2009. DOI: 10.1021/acs.jctc.7b00118
   for GFN0-xTB:
   * P. Pracht, E. Caldeweyher, S. Ehlert, S. Grimme, ChemRxiv, 2019, preprint.
     DOI: 10.26434/chemrxiv.8326202.v1
   for GFN-FF:
   * S. Spicher and S. Grimme, Angew. Chem. Int. Ed., 2020, 59, 15665-15673.
     DOI: 10.1002/anie.202004239
   
   for ALPB and GBSA implicit solvation:
   * S. Ehlert, M. Stahn, S. Spicher, S. Grimme, J. Chem. Theory Comput.,
     2021, 17, 4250-4261. DOI: 10.1021/acs.jctc.1c00471
   
   for ddCOSMO and CPCM-X implicit solvation:
   * M. Stahn, S. Ehlert, S. Grimme, J. Phys. Chem. A,
     2023, XX, XXXX-XXXX. DOI: 10.1021/acs.jpca.3c04382
   
   for DFT-D4:
   * E. Caldeweyher, C. Bannwarth and S. Grimme, J. Chem. Phys., 2017,
     147, 034112. DOI: 10.1063/1.4993215
   * E. Caldeweyher, S. Ehlert, A. Hansen, H. Neugebauer, S. Spicher,
     C. Bannwarth and S. Grimme, J. Chem. Phys., 2019, 150, 154122.
     DOI: 10.1063/1.5090222
   * E. Caldeweyher, J.-M. Mewes, S. Ehlert and S. Grimme, Phys. Chem. Chem. Phys.
     2020, 22, 8499-8512. DOI: 10.1039/D0CP00502A
   
   for sTDA-xTB:
   * S. Grimme and C. Bannwarth, J. Chem. Phys., 2016, 145, 054103.
     DOI: 10.1063/1.4959605
   
   in the mass-spec context:
   * V. Asgeirsson, C. Bauer and S. Grimme, Chem. Sci., 2017, 8, 4879.
     DOI: 10.1039/c7sc00601b
   * J. Koopman and S. Grimme, ACS Omega 2019, 4, 12, 15120-15133.
     DOI: 10.1021/acsomega.9b02011
   
   for metadynamics refer to:
   * S. Grimme, J. Chem. Theory Comput., 2019, 155, 2847-2862
     DOI: 10.1021/acs.jctc.9b00143
   
   for SPH calculations refer to:
   * S. Spicher and S. Grimme, J. Chem. Theory Comput., 2021, 17, 1701-1714
     DOI: 10.1021/acs.jctc.0c01306
   
   for ONIOM refer to:
   * C. Plett, A. Katbashev, S. Ehlert, S. Grimme, M. Bursch,
     Phys. Chem. Chem. Phys., 2023, 25, 17860-17868. DOI: 10.1039/D3CP02178E
   
   for DIPRO refer to:
   * J. Kohn, N. Gildemeister, S. Grimme, D. Fazzi, A. Hansen,
     J. Chem. Phys., 2023, just accepted.
   
   for PTB refer to:
   * S. Grimme, M. Mueller, A. Hansen, J. Chem. Phys., 2023, 158, 124111.
     DOI: 10.1063/5.0137838
   
   with help from (in alphabetical order)
   P. Atkinson, C. Bannwarth, F. Bohle, G. Brandenburg, E. Caldeweyher
   M. Checinski, S. Dohm, S. Ehlert, S. Ehrlich, I. Gerasimov, C. Hölzer
   A. Katbashev, J. Kohn, J. Koopman, C. Lavigne, S. Lehtola, F. März, M. Müller,
   F. Musil, H. Neugebauer, J. Pisarek, C. Plett, P. Pracht, F. Pultar,
   J. Seibert, P. Shushkov, S. Spicher, M. Stahn, M. Steiner, T. Strunk,
   J. Stückrath, T. Rose, and J. Unsleber
   
 * started run on 2026/09/19 at 14:44:22.545     
   ID    Z sym.   atoms
    1    6 C      1-5
    2    1 H      6-15, 17
    3    8 O      16

           -------------------------------------------------
          |                Calculation Setup                |
           -------------------------------------------------

          program call               : /apps/eb/ORCA/6.1.1-gompi-2023b-avx2/bin/otool_xtb opt_XTB.xyz --grad -c 0 -u 1 -P 8 --namespace opt --input opt_XTB.input.tmp --acc 0.200000
          hostname                   : a1-8
          calculation namespace      : opt
          coordinate file            : opt_XTB.xyz
          omp threads                :                     8


molecular fragmentation (1/2 indicates fragments):
11111111111111122
# atoms in fragment 1/2:    15     2
 fragment masses (1/2) :       70.13       17.01
CMA distance (Bohr)    :   5.978
constraining FC (au)   :  0.0500

           -------------------------------------------------
          |                 G F N 2 - x T B                 |
           -------------------------------------------------

        Reference                      10.1021/acs.jctc.8b01176
      * Hamiltonian:
        H0-scaling (s, p, d)           1.850000    2.230000    2.230000
        zeta-weighting                 0.500000
      * Dispersion:
        s8                             2.700000
        a1                             0.520000
        a2                             5.000000
        s9                             5.000000
      * Repulsion:
        kExp                           1.500000    1.000000
        rExp                           1.000000
      * Coulomb:
        alpha                          2.000000
        third order                    shell-resolved
        anisotropic                    true
        a3                             3.000000
        a5                             4.000000
        cn-shift                       1.200000
        cn-exp                         4.000000
        max-rad                        5.000000

q/qsh data taken from xtbrestart
CAMM data taken from xtbrestart

          ...................................................
          :                      SETUP                      :
          :.................................................:
          :  # basis functions                  35          :
          :  # atomic orbitals                  35          :
          :  # shells                           23          :
          :  # electrons                        37          :
          :  max. iterations                   250          :
          :  Hamiltonian                  GFN2-xTB          :
          :  restarted?                       true          :
          :  GBSA solvation                  false          :
          :  PC potential                    false          :
          :  electronic temp.          300.0000000     K    :
          :  accuracy                    0.2000000          :
          :  -> integral cutoff          0.3198970E+02      :
          :  -> integral neglect         0.2000000E-08      :
          :  -> SCF convergence          0.2000000E-06 Eh   :
          :  -> wf. convergence          0.2000000E-04 e    :
          :  Broyden damping             0.4000000          :
          :  net charge                          0          :
          :  unpaired electrons                  1          :
          ...................................................

 iter      E             dE          RMSdq      gap      omega  full diag
   1    -20.5387896 -0.205388E+02  0.468E-01    3.73       0.0  T
   2    -20.5388000 -0.103716E-04  0.276E-01    3.74       1.0  T
   3    -20.5387767  0.232890E-04  0.424E-02    3.72       1.0  T
   4    -20.5388046 -0.278692E-04  0.782E-03    3.73       3.1  T
   5    -20.5388051 -0.513220E-06  0.419E-03    3.73       5.8  T
   6    -20.5388052 -0.699500E-07  0.106E-03    3.73      23.0  T
   7    -20.5388052 -0.646702E-08  0.346E-04    3.73      70.0  T
   8    -20.5388052 -0.214943E-09  0.143E-04    3.73     169.8  T
   9    -20.5388052 -0.108987E-09  0.496E-05    3.73     488.6  T

   *** convergence criteria satisfied after 9 iterations ***

         #    Occupation            Energy/Eh            Energy/eV
      -------------------------------------------------------------
         1        2.0000           -0.6464897             -17.5919
       ...           ...                  ...                  ...
        13        2.0000           -0.4749232             -12.9233
        14        2.0000           -0.4586036             -12.4792
        15        2.0000           -0.4540337             -12.3549
        16        2.0000           -0.4458058             -12.1310
        17        2.0000           -0.4137235             -11.2580
        18        2.0000           -0.3960503             -10.7771
        19        1.0000           -0.3487652              -9.4904 (HOMO)
        20                         -0.2115522              -5.7566 (LUMO)
        21                          0.0829833               2.2581
        22                          0.0991564               2.6982
        23                          0.1344614               3.6589
        24                          0.1606530               4.3716
       ...                                ...                  ...
        35                          0.5988963              16.2968
      -------------------------------------------------------------
                  HL-Gap            0.1372129 Eh            3.7338 eV
             Fermi-level           -0.3262832 Eh           -8.8786 eV

 SCC (total)                   0 d,  0 h,  0 min,  0.011 sec
 SCC setup                      ...        0 min,  0.000 sec (  1.760%)
 Dispersion                     ...        0 min,  0.000 sec (  1.236%)
 classical contributions        ...        0 min,  0.000 sec (  0.491%)
 integral evaluation            ...        0 min,  0.001 sec (  6.734%)
 iterations                     ...        0 min,  0.008 sec ( 70.049%)
 molecular gradient             ...        0 min,  0.002 sec ( 16.820%)
 printout                       ...        0 min,  0.000 sec (  2.741%)

         :::::::::::::::::::::::::::::::::::::::::::::::::::::
         ::                     SUMMARY                     ::
         :::::::::::::::::::::::::::::::::::::::::::::::::::::
         :: total energy             -20.248581195598 Eh    ::
         :: gradient norm              0.075710226184 Eh/a0 ::
         :: HOMO-LUMO gap              3.733754378629 eV    ::
         ::.................................................::
         :: SCC energy               -20.538780490832 Eh    ::
         :: -> isotropic ES            0.046730979895 Eh    ::
         :: -> anisotropic ES         -0.001718828048 Eh    ::
         :: -> anisotropic XC          0.010285188259 Eh    ::
         :: -> dispersion             -0.008485678498 Eh    ::
         :: repulsion energy           0.290199295234 Eh    ::
         :: add. restraining           0.000000000000 Eh    ::
         :: total charge              -0.000000000000 e     ::
         :::::::::::::::::::::::::::::::::::::::::::::::::::::


Property printout bound to 'properties.out'

           -------------------------------------------------
          | TOTAL ENERGY              -20.248581195598 Eh   |
          | GRADIENT NORM               0.075710226184 Eh/α |
          | HOMO-LUMO GAP               3.733754378629 eV   |
           -------------------------------------------------

------------------------------------------------------------------------
 * finished run on 2026/09/19 at 14:44:22.586     
------------------------------------------------------------------------
 total:
 * wall-time:     0 d,  0 h,  0 min,  0.040 sec
 *  cpu-time:     0 d,  0 h,  0 min,  0.217 sec
 * ratio c/w:     5.366 speedup
 SCF:
 * wall-time:     0 d,  0 h,  0 min,  0.012 sec
 *  cpu-time:     0 d,  0 h,  0 min,  0.068 sec
 * ratio c/w:     5.919 speedup


-------------------------   --------------------
FINAL SINGLE POINT ENERGY       -20.248581195600
-------------------------   --------------------


-------------
DIPOLE MOMENT
-------------
                                X             Y             Z
Total Dipole Moment    :      0.96100       1.01000       0.93300
                        -----------------------------------------
Magnitude (a.u.)       :      1.67753
Magnitude (Debye)      :      4.26394


------------------
CARTESIAN GRADIENT
------------------

   1   C   :   -0.000539631    0.000150729    0.000138878
   2   C   :   -0.001134511    0.001962204   -0.000223382
   3   C   :    0.000801475   -0.002243786    0.000542754
   4   C   :   -0.008241075   -0.025088463   -0.044949876
   5   C   :   -0.000605039   -0.000884857   -0.000432317
   6   H   :    0.000098623    0.000029969    0.000010648
   7   H   :    0.000353073   -0.000004885    0.000047834
   8   H   :    0.000132481    0.000017070   -0.000125032
   9   H   :   -0.000444355   -0.000223427   -0.000010710
  10   H   :    0.000870973    0.000035132   -0.000455773
  11   H   :    0.005600252    0.024391649    0.048421764
  12   H   :   -0.000132928   -0.000030977   -0.000144692
  13   H   :    0.000014092    0.000160638    0.000101404
  14   H   :   -0.000007407    0.000145647   -0.000013853
  15   H   :   -0.000084252    0.000113085    0.000153256
  16   O   :    0.003181154    0.000866896   -0.004072556
  17   H   :    0.000137075    0.000603374    0.001011654

Difference to translation invariance:
           :   -0.0000000000   -0.0000000000    0.0000000000

Difference to rotation invariance:
           :    0.0000002822   -0.0000003547    0.0000001269

Norm of the Cartesian gradient     ...    0.0757102262
RMS gradient                       ...    0.0106015522
MAX gradient                       ...    0.0484217640
------------------------------------------------------------------------------
                         ORCA GEOMETRY RELAXATION STEP
------------------------------------------------------------------------------

Reading the OPT-File                    .... done
Getting information on internals        .... done
Copying old internal coords+grads       .... done
Making the new internal coordinates     .... (2022 redundants) done
Validating the new internal coordinates .... (2022 redundants) done
Calculating the B-matrix                .... done
Calculating the G,G- and P matrices     .... done
Transforming gradient to internals      .... done
Projecting the internal gradient        .... done
Number of atoms                         ....  17
Number of internal coordinates          ....  75
Current Energy                          ....   -20.248581196 Eh
Current gradient norm                   ....     0.075710226 Eh/bohr
Maximum allowed component of the step   ....  0.300
Current trust radius                    ....  0.700
Updating the Hessian (BFGS)             .... done
Forming the augmented Hessian           .... done
Diagonalizing the augmented Hessian     .... done
Last element of RFO vector              ....  0.984264508
Lowest eigenvalues of augmented Hessian:
 -0.000325655  0.006946888  0.010004160  0.010781738  0.029221526
Length of the computed step             ....  0.179526314
The final length of the internal step   ....  0.179526314
Converting the step to Cartesian space:
 Initial RMS(Int)=    0.0207299131
Transforming coordinates:
 Iter   0:  RMS(Cart)=    0.0972637924 RMS(Int)=    0.0207553551
 Iter   5:  RMS(Cart)=    0.0000016831 RMS(Int)=    0.0000007680
 Iter  10:  RMS(Cart)=    0.0000000520 RMS(Int)=    0.0000000238
Imposing constraints:
 Iter   0:  RMS(Cart)=    0.0000000000 RMS(Int)=    0.0000000000
CONVERGED
done
Storing new coordinates                 .... done
The predicted energy change is          ....    -0.000168075
Previously predicted energy change      ....    -0.000660394
Actually observed energy change         ....    -0.000675568
Ratio of predicted to observed change   ....     1.022976919
New trust radius                        ....     0.700000000

                                .--------------------.
          ----------------------|Geometry convergence|-------------------------
          Item                value                   Tolerance       Converged
          ---------------------------------------------------------------------
          Energy change      -0.0006755682            0.0000050000      NO
          RMS gradient        0.0005080411            0.0001000000      NO
          MAX gradient        0.0021344208            0.0003000000      NO
          RMS step            0.0207299131            0.0020000000      NO
          MAX step            0.0865786278            0.0040000000      NO
          -------------------------------------------------------------------------
          ........................................................
          Max(Bonds)      0.0012      Max(Angles)    0.61
          Max(Dihed)        4.96      Max(Improp)    0.00
          ---------------------------------------------------------------------

The optimization has not yet converged - more geometry cycles are needed


    ---------------------------------------------------------------------------
                         Redundant Internal Coordinates
                            (Angstroem and degrees)

        Definition                    Value    dE/dq     Step     New-Value
    ----------------------------------------------------------------------------
     1. B(C   1,C   0)                1.4867  0.000126 -0.0001    1.4866   
     2. B(C   2,C   1)                1.3339 -0.001885  0.0012    1.3351   
     3. B(C   3,C   2)                1.4637 -0.000023  0.0003    1.4640   
     4. B(C   4,C   3)                1.5204  0.000265 -0.0004    1.5200   
     5. B(H   5,C   0)                1.0906  0.000044 -0.0001    1.0904   
     6. B(H   6,C   0)                1.0869 -0.000114  0.0002    1.0871   
     7. B(H   7,C   0)                1.0901 -0.000041  0.0001    1.0902   
     8. B(H   8,C   1)                1.0831  0.000103 -0.0001    1.0829   
     9. B(H   9,C   2)                1.0838  0.000150 -0.0002    1.0835   
    10. B(H  10,C   3)                1.0868 -0.032763 -0.0000    1.0868   
    11. B(H  11,C   3)                1.0931 -0.000105  0.0001    1.0932   
    12. B(H  12,C   4)                1.0865 -0.000094  0.0002    1.0866   
    13. B(H  13,C   4)                1.0907  0.000062 -0.0002    1.0905   
    14. B(H  14,C   4)                1.0874 -0.000019  0.0001    1.0874   
    15. B(O  15,H  10)                1.4000  0.008084 -0.0000    1.4000   
    16. B(H  16,O  15)                0.9571 -0.000078  0.0006    0.9577   
    17. A(H   5,C   0,H   7)          107.10 -0.000199    0.08    107.18   
    18. A(C   1,C   0,H   7)          110.31  0.000137   -0.03    110.28   
    19. A(H   6,C   0,H   7)          108.91 -0.000205    0.04    108.95   
    20. A(C   1,C   0,H   6)          111.52  0.000477   -0.13    111.38   
    21. A(H   5,C   0,H   6)          108.88 -0.000206    0.05    108.92   
    22. A(C   1,C   0,H   5)          110.00 -0.000037    0.02    110.02   
    23. A(C   0,C   1,C   2)          124.84  0.000539   -0.11    124.73   
    24. A(C   2,C   1,H   8)          119.34 -0.000763    0.16    119.50   
    25. A(C   0,C   1,H   8)          115.82  0.000224   -0.05    115.77   
    26. A(C   1,C   2,C   3)          124.68  0.000449   -0.09    124.59   
    27. A(C   1,C   2,H   9)          118.91 -0.001090    0.23    119.14   
    28. A(C   3,C   2,H   9)          116.41  0.000642   -0.14    116.27   
    29. A(C   2,C   3,C   4)          114.83  0.000678   -0.18    114.65   
    30. A(C   2,C   3,H  10)          110.33  0.000924   -0.28    110.05   
    31. A(C   4,C   3,H  10)          102.72 -0.001609    0.54    103.26   
    32. A(C   2,C   3,H  11)          111.75 -0.000331    0.02    111.78   
    33. A(C   4,C   3,H  11)          111.87 -0.000094    0.02    111.90   
    34. A(H  10,C   3,H  11)          104.43  0.000357   -0.10    104.33   
    35. A(C   3,C   4,H  12)          110.69  0.000219   -0.07    110.62   
    36. A(C   3,C   4,H  13)          110.10 -0.000059    0.02    110.12   
    37. A(H  12,C   4,H  13)          108.40 -0.000093    0.03    108.43   
    38. A(C   3,C   4,H  14)          110.78  0.000220   -0.06    110.71   
    39. A(H  12,C   4,H  14)          108.62 -0.000037    0.02    108.63   
    40. A(H  13,C   4,H  14)          108.18 -0.000268    0.07    108.24   
    41. A(C   3,H  10,O  15)          160.20 -0.005275    0.00    160.20   
    42. L(H  10,O  15,H  16,C   3, 1) 103.37 -0.002134    0.61    103.98   
    43. L(H  10,O  15,H  16,C   3, 2) 179.63  0.000078   -0.02    179.61   
    44. D(C   2,C   1,C   0,H   5)   -120.85 -0.000069    0.04   -120.82   
    45. D(C   2,C   1,C   0,H   6)      0.05 -0.000040    0.02      0.07   
    46. D(H   8,C   1,C   0,H   5)     59.37 -0.000014   -0.03     59.34   
    47. D(H   8,C   1,C   0,H   6)   -179.73  0.000016   -0.05   -179.77   
    48. D(C   2,C   1,C   0,H   7)    121.21  0.000115   -0.05    121.16   
    49. D(C   3,C   2,C   1,C   0)   -179.41  0.000267   -0.42   -179.83   
    50. D(C   3,C   2,C   1,H   8)      0.36  0.000212   -0.35      0.01   
    51. D(H   9,C   2,C   1,C   0)      0.63 -0.000037    0.11      0.74   
    52. D(H   9,C   2,C   1,H   8)   -179.61 -0.000092    0.18   -179.42   
    53. D(C   4,C   3,C   2,C   1)    138.89 -0.000313    4.58    143.48   
    54. D(C   4,C   3,C   2,H   9)    -41.14 -0.000017    4.07    -37.07   
    55. D(H  10,C   3,C   2,C   1)   -105.64 -0.001292    4.96   -100.68   
    56. D(H  10,C   3,C   2,H   9)     74.33 -0.000995    4.45     78.77   
    57. D(H  11,C   3,C   2,C   1)     10.09 -0.000476    4.68     14.77   
    58. D(H  12,C   4,C   3,C   2)    175.46  0.000166   -0.29    175.17   
    59. D(H  12,C   4,C   3,H  10)     55.66 -0.000252   -0.20     55.47   
    60. D(H  12,C   4,C   3,H  11)    -55.80  0.000212   -0.39    -56.19   
    61. D(H  13,C   4,C   3,C   2)    -64.71  0.000153   -0.28    -64.99   
    62. D(H  13,C   4,C   3,H  10)    175.50 -0.000266   -0.19    175.31   
    63. D(H  13,C   4,C   3,H  11)     64.03  0.000198   -0.38     63.65   
    64. D(O  15,H  10,C   3,C   2)      3.74 -0.000153    0.04      3.78   
    65. D(O  15,H  10,C   3,C   4)    126.61  0.000173   -0.01    126.60   
    66. D(O  15,H  10,C   3,H  11)   -116.49 -0.000443    0.22   -116.27   
    67. C_Y(C   3)                     -0.84 -0.008936   -0.00     -0.84 C 
    68. C_X(C   3)                     -1.15 -0.002842   -0.00     -1.15 C 
    69. C_Z(C   3)                     -0.08 -0.017682    0.00     -0.08 C 
    70. C_Z(H  10)                     -0.95  0.012904   -0.00     -0.95 C 
    71. C_X(H  10)                     -1.47  0.000238    0.00     -1.47 C 
    72. C_Y(H  10)                     -1.41  0.005254    0.00     -1.41 C 
    73. C_Z(O  15)                     -2.24  0.004778    0.00     -2.24 C 
    74. C_Y(O  15)                     -1.93  0.003682    0.00     -1.93 C 
    75. C_X(O  15)                     -1.50  0.002604   -0.00     -1.50 C 
    ----------------------------------------------------------------------------

Geometry step timings:
Preparation and reading OPT file:      0.000 s ( 0.148 %)
Internal coordinates            :      0.000 s ( 0.234 %)
B/P matrices and projection     :      0.002 s (12.934 %)
Hessian update/contruction      :      0.007 s (51.072 %)
Making the step                 :      0.001 s ( 5.379 %)
Converting the step to Cartesian:      0.000 s ( 1.466 %)
Storing new data                :      0.000 s ( 0.187 %)
Checking convergence            :      0.000 s ( 0.296 %)
Final printing                  :      0.004 s (28.268 %)
Total time                      :      0.013 s

Time for energy+gradient        :      0.054 s
Time for complete geometry iter :      0.082 s

         *************************************************************
         *                GEOMETRY OPTIMIZATION CYCLE   8            *
         *************************************************************
---------------------------------
CARTESIAN COORDINATES (ANGSTROEM)
---------------------------------
  C     2.485456    0.435141   -0.435812
  C     1.285041   -0.375158   -0.100394
  C     0.030587   -0.041755   -0.413044
  C    -1.149753   -0.840407   -0.078009
  C    -2.381175   -0.028373    0.289015
  H     3.169489   -0.148568   -1.052595
  H     2.214748    1.341878   -0.970915
  H     3.023434    0.707402    0.472424
  H     1.473722   -1.295317    0.438574
  H    -0.150734    0.875493   -0.960626
  H    -1.474726   -1.407278   -0.946451
  H    -0.924362   -1.601743    0.673424
  H    -3.237456   -0.679636    0.442069
  H    -2.202687    0.528555    1.209465
  H    -2.621651    0.682616   -0.497873
  O    -1.495615   -1.933353   -2.243682
  H    -0.713743   -1.564340   -2.655544

----------------------------
CARTESIAN COORDINATES (A.U.)
----------------------------
  NO LB    ZA    FRAG    MASS        X           Y           Z
   0 C   6.0000    0    12.011    4.696830    0.822297   -0.823565
   1 C   6.0000    0    12.011    2.428375   -0.708947   -0.189716
   2 C   6.0000    0    12.011    0.057800   -0.078905   -0.780540
   3 C   6.0000    0    12.011   -2.172718   -1.588138   -0.147416
   4 C   6.0000    0    12.011   -4.499769   -0.053618    0.546160
   5 H   1.0000    0     1.008    5.989467   -0.280753   -1.989117
   6 H   1.0000    0     1.008    4.185268    2.535783   -1.834763
   7 H   1.0000    0     1.008    5.713462    1.336796    0.892752
   8 H   1.0000    0     1.008    2.784930   -2.447795    0.828785
   9 H   1.0000    0     1.008   -0.284846    1.654441   -1.815320
  10 H   1.0000    0     1.008   -2.786828   -2.659370   -1.788533
  11 H   1.0000    0     1.008   -1.746790   -3.026856    1.272586
  12 H   1.0000    0     1.008   -6.117906   -1.284326    0.835389
  13 H   1.0000    0     1.008   -4.162476    0.998823    2.285557
  14 H   1.0000    0     1.008   -4.954203    1.289957   -0.940844
  15 O   8.0000    0    15.999   -2.826303   -3.653509   -4.239944
  16 H   1.0000    0     1.008   -1.348779   -2.956175   -5.018251

      -----------------------------------------------------------      
     |                   =====================                   |     
     |                           x T B                           |     
     |                   =====================                   |     
     |                         S. Grimme                         |     
     |          Mulliken Center for Theoretical Chemistry        |     
     |                    University of Bonn                     |     
      -----------------------------------------------------------      

   * xtb version 6.7.1 (edcfbbe) compiled by 'albert@albert-system' on 2024-07-22

   xtb is free software: you can redistribute it and/or modify it under
   the terms of the GNU Lesser General Public License as published by
   the Free Software Foundation, either version 3 of the License, or
   (at your option) any later version.
   
   xtb is distributed in the hope that it will be useful,
   but WITHOUT ANY WARRANTY; without even the implied warranty of
   MERCHANTABILITY or FITNESS FOR A PARTICULAR PURPOSE.  See the
   GNU Lesser General Public License for more details.
   
   Cite this work as:
   * C. Bannwarth, E. Caldeweyher, S. Ehlert, A. Hansen, P. Pracht,
     J. Seibert, S. Spicher, S. Grimme, WIREs Comput. Mol. Sci., 2020, 11,
     e01493. DOI: 10.1002/wcms.1493
   
   for GFN2-xTB:
   * C. Bannwarth, S. Ehlert and S. Grimme., J. Chem. Theory Comput., 2019,
     15, 1652-1671. DOI: 10.1021/acs.jctc.8b01176
   for GFN1-xTB:
   * S. Grimme, C. Bannwarth, P. Shushkov, J. Chem. Theory Comput., 2017,
     13, 1989-2009. DOI: 10.1021/acs.jctc.7b00118
   for GFN0-xTB:
   * P. Pracht, E. Caldeweyher, S. Ehlert, S. Grimme, ChemRxiv, 2019, preprint.
     DOI: 10.26434/chemrxiv.8326202.v1
   for GFN-FF:
   * S. Spicher and S. Grimme, Angew. Chem. Int. Ed., 2020, 59, 15665-15673.
     DOI: 10.1002/anie.202004239
   
   for ALPB and GBSA implicit solvation:
   * S. Ehlert, M. Stahn, S. Spicher, S. Grimme, J. Chem. Theory Comput.,
     2021, 17, 4250-4261. DOI: 10.1021/acs.jctc.1c00471
   
   for ddCOSMO and CPCM-X implicit solvation:
   * M. Stahn, S. Ehlert, S. Grimme, J. Phys. Chem. A,
     2023, XX, XXXX-XXXX. DOI: 10.1021/acs.jpca.3c04382
   
   for DFT-D4:
   * E. Caldeweyher, C. Bannwarth and S. Grimme, J. Chem. Phys., 2017,
     147, 034112. DOI: 10.1063/1.4993215
   * E. Caldeweyher, S. Ehlert, A. Hansen, H. Neugebauer, S. Spicher,
     C. Bannwarth and S. Grimme, J. Chem. Phys., 2019, 150, 154122.
     DOI: 10.1063/1.5090222
   * E. Caldeweyher, J.-M. Mewes, S. Ehlert and S. Grimme, Phys. Chem. Chem. Phys.
     2020, 22, 8499-8512. DOI: 10.1039/D0CP00502A
   
   for sTDA-xTB:
   * S. Grimme and C. Bannwarth, J. Chem. Phys., 2016, 145, 054103.
     DOI: 10.1063/1.4959605
   
   in the mass-spec context:
   * V. Asgeirsson, C. Bauer and S. Grimme, Chem. Sci., 2017, 8, 4879.
     DOI: 10.1039/c7sc00601b
   * J. Koopman and S. Grimme, ACS Omega 2019, 4, 12, 15120-15133.
     DOI: 10.1021/acsomega.9b02011
   
   for metadynamics refer to:
   * S. Grimme, J. Chem. Theory Comput., 2019, 155, 2847-2862
     DOI: 10.1021/acs.jctc.9b00143
   
   for SPH calculations refer to:
   * S. Spicher and S. Grimme, J. Chem. Theory Comput., 2021, 17, 1701-1714
     DOI: 10.1021/acs.jctc.0c01306
   
   for ONIOM refer to:
   * C. Plett, A. Katbashev, S. Ehlert, S. Grimme, M. Bursch,
     Phys. Chem. Chem. Phys., 2023, 25, 17860-17868. DOI: 10.1039/D3CP02178E
   
   for DIPRO refer to:
   * J. Kohn, N. Gildemeister, S. Grimme, D. Fazzi, A. Hansen,
     J. Chem. Phys., 2023, just accepted.
   
   for PTB refer to:
   * S. Grimme, M. Mueller, A. Hansen, J. Chem. Phys., 2023, 158, 124111.
     DOI: 10.1063/5.0137838
   
   with help from (in alphabetical order)
   P. Atkinson, C. Bannwarth, F. Bohle, G. Brandenburg, E. Caldeweyher
   M. Checinski, S. Dohm, S. Ehlert, S. Ehrlich, I. Gerasimov, C. Hölzer
   A. Katbashev, J. Kohn, J. Koopman, C. Lavigne, S. Lehtola, F. März, M. Müller,
   F. Musil, H. Neugebauer, J. Pisarek, C. Plett, P. Pracht, F. Pultar,
   J. Seibert, P. Shushkov, S. Spicher, M. Stahn, M. Steiner, T. Strunk,
   J. Stückrath, T. Rose, and J. Unsleber
   
 * started run on 2026/09/19 at 14:44:22.628     
   ID    Z sym.   atoms
    1    6 C      1-5
    2    1 H      6-15, 17
    3    8 O      16

           -------------------------------------------------
          |                Calculation Setup                |
           -------------------------------------------------

          program call               : /apps/eb/ORCA/6.1.1-gompi-2023b-avx2/bin/otool_xtb opt_XTB.xyz --grad -c 0 -u 1 -P 8 --namespace opt --input opt_XTB.input.tmp --acc 0.200000
          hostname                   : a1-8
          calculation namespace      : opt
          coordinate file            : opt_XTB.xyz
          omp threads                :                     8


molecular fragmentation (1/2 indicates fragments):
11111111111111122
# atoms in fragment 1/2:    15     2
 fragment masses (1/2) :       70.13       17.01
CMA distance (Bohr)    :   5.912
constraining FC (au)   :  0.0500

           -------------------------------------------------
          |                 G F N 2 - x T B                 |
           -------------------------------------------------

        Reference                      10.1021/acs.jctc.8b01176
      * Hamiltonian:
        H0-scaling (s, p, d)           1.850000    2.230000    2.230000
        zeta-weighting                 0.500000
      * Dispersion:
        s8                             2.700000
        a1                             0.520000
        a2                             5.000000
        s9                             5.000000
      * Repulsion:
        kExp                           1.500000    1.000000
        rExp                           1.000000
      * Coulomb:
        alpha                          2.000000
        third order                    shell-resolved
        anisotropic                    true
        a3                             3.000000
        a5                             4.000000
        cn-shift                       1.200000
        cn-exp                         4.000000
        max-rad                        5.000000

q/qsh data taken from xtbrestart
CAMM data taken from xtbrestart

          ...................................................
          :                      SETUP                      :
          :.................................................:
          :  # basis functions                  35          :
          :  # atomic orbitals                  35          :
          :  # shells                           23          :
          :  # electrons                        37          :
          :  max. iterations                   250          :
          :  Hamiltonian                  GFN2-xTB          :
          :  restarted?                       true          :
          :  GBSA solvation                  false          :
          :  PC potential                    false          :
          :  electronic temp.          300.0000000     K    :
          :  accuracy                    0.2000000          :
          :  -> integral cutoff          0.3198970E+02      :
          :  -> integral neglect         0.2000000E-08      :
          :  -> SCF convergence          0.2000000E-06 Eh   :
          :  -> wf. convergence          0.2000000E-04 e    :
          :  Broyden damping             0.4000000          :
          :  net charge                          0          :
          :  unpaired electrons                  1          :
          ...................................................

 iter      E             dE          RMSdq      gap      omega  full diag
   1    -20.5385826 -0.205386E+02  0.353E-01    3.74       0.0  T
   2    -20.5385852 -0.267455E-05  0.207E-01    3.73       1.0  T
   3    -20.5385805  0.472352E-05  0.187E-02    3.74       1.3  T
   4    -20.5385865 -0.603019E-05  0.417E-03    3.73       5.8  T
   5    -20.5385867 -0.115304E-06  0.219E-03    3.73      11.1  T
   6    -20.5385867 -0.166809E-07  0.591E-04    3.73      41.0  T
   7    -20.5385867 -0.154327E-08  0.128E-04    3.73     189.2  T
   8    -20.5385867 -0.221156E-10  0.331E-05    3.73     732.1  T

   *** convergence criteria satisfied after 8 iterations ***

         #    Occupation            Energy/Eh            Energy/eV
      -------------------------------------------------------------
         1        2.0000           -0.6463805             -17.5889
       ...           ...                  ...                  ...
        13        2.0000           -0.4741957             -12.9035
        14        2.0000           -0.4587413             -12.4830
        15        2.0000           -0.4537585             -12.3474
        16        2.0000           -0.4459800             -12.1357
        17        2.0000           -0.4135036             -11.2520
        18        2.0000           -0.3956360             -10.7658
        19        1.0000           -0.3485550              -9.4847 (HOMO)
        20                         -0.2115273              -5.7560 (LUMO)
        21                          0.0823053               2.2396
        22                          0.0999574               2.7200
        23                          0.1347610               3.6670
        24                          0.1600072               4.3540
       ...                                ...                  ...
        35                          0.5953207              16.1995
      -------------------------------------------------------------
                  HL-Gap            0.1370277 Eh            3.7287 eV
             Fermi-level           -0.3260683 Eh           -8.8728 eV

 SCC (total)                   0 d,  0 h,  0 min,  0.018 sec
 SCC setup                      ...        0 min,  0.001 sec (  3.640%)
 Dispersion                     ...        0 min,  0.000 sec (  1.427%)
 classical contributions        ...        0 min,  0.000 sec (  0.826%)
 integral evaluation            ...        0 min,  0.001 sec (  3.029%)
 iterations                     ...        0 min,  0.014 sec ( 77.562%)
 molecular gradient             ...        0 min,  0.002 sec ( 10.394%)
 printout                       ...        0 min,  0.001 sec (  2.988%)

         :::::::::::::::::::::::::::::::::::::::::::::::::::::
         ::                     SUMMARY                     ::
         :::::::::::::::::::::::::::::::::::::::::::::::::::::
         :: total energy             -20.248831548362 Eh    ::
         :: gradient norm              0.076355573153 Eh/a0 ::
         :: HOMO-LUMO gap              3.728714581481 eV    ::
         ::.................................................::
         :: SCC energy               -20.538562025598 Eh    ::
         :: -> isotropic ES            0.046872991783 Eh    ::
         :: -> anisotropic ES         -0.001768201379 Eh    ::
         :: -> anisotropic XC          0.010314834309 Eh    ::
         :: -> dispersion             -0.008495800835 Eh    ::
         :: repulsion energy           0.289730477236 Eh    ::
         :: add. restraining           0.000000000000 Eh    ::
         :: total charge              -0.000000000000 e     ::
         :::::::::::::::::::::::::::::::::::::::::::::::::::::


Property printout bound to 'properties.out'

           -------------------------------------------------
          | TOTAL ENERGY              -20.248831548362 Eh   |
          | GRADIENT NORM               0.076355573153 Eh/α |
          | HOMO-LUMO GAP               3.728714581481 eV   |
           -------------------------------------------------

------------------------------------------------------------------------
 * finished run on 2026/09/19 at 14:44:22.677     
------------------------------------------------------------------------
 total:
 * wall-time:     0 d,  0 h,  0 min,  0.048 sec
 *  cpu-time:     0 d,  0 h,  0 min,  0.322 sec
 * ratio c/w:     6.674 speedup
 SCF:
 * wall-time:     0 d,  0 h,  0 min,  0.018 sec
 *  cpu-time:     0 d,  0 h,  0 min,  0.123 sec
 * ratio c/w:     6.926 speedup


-------------------------   --------------------
FINAL SINGLE POINT ENERGY       -20.248831548360
-------------------------   --------------------


-------------
DIPOLE MOMENT
-------------
                                X             Y             Z
Total Dipole Moment    :      0.97100       0.99900       0.91800
                        -----------------------------------------
Magnitude (a.u.)       :      1.66840
Magnitude (Debye)      :      4.24074


------------------
CARTESIAN GRADIENT
------------------

   1   C   :   -0.000236089   -0.000093032    0.000150858
   2   C   :   -0.000423893    0.001216232    0.000127408
   3   C   :    0.000187151   -0.001213598   -0.000136374
   4   C   :   -0.009061681   -0.025968106   -0.045387024
   5   C   :   -0.000482659   -0.000196179   -0.000167885
   6   H   :    0.000017888    0.000003887   -0.000015226
   7   H   :    0.000109592    0.000024701   -0.000005160
   8   H   :    0.000026636    0.000024607   -0.000024812
   9   H   :   -0.000127792   -0.000181519   -0.000009141
  10   H   :    0.000350985    0.000129951   -0.000200249
  11   H   :    0.005933485    0.024269444    0.048592616
  12   H   :   -0.000043108    0.000195572    0.000269386
  13   H   :    0.000052418   -0.000027168    0.000039593
  14   H   :    0.000016750    0.000115363   -0.000018853
  15   H   :    0.000008511    0.000120322    0.000046040
  16   O   :    0.003069933    0.000968772   -0.003615929
  17   H   :    0.000601873    0.000610753    0.000354752

Difference to translation invariance:
           :    0.0000000000   -0.0000000000    0.0000000000

Difference to rotation invariance:
           :   -0.0000000307    0.0000000571   -0.0000000219

Norm of the Cartesian gradient     ...    0.0763555732
RMS gradient                       ...    0.0106919188
MAX gradient                       ...    0.0485926161
------------------------------------------------------------------------------
                         ORCA GEOMETRY RELAXATION STEP
------------------------------------------------------------------------------

Reading the OPT-File                    .... done
Getting information on internals        .... done
Copying old internal coords+grads       .... done
Making the new internal coordinates     .... (2022 redundants) done
Validating the new internal coordinates .... (2022 redundants) done
Calculating the B-matrix                .... done
Calculating the G,G- and P matrices     .... done
Transforming gradient to internals      .... done
Projecting the internal gradient        .... done
Number of atoms                         ....  17
Number of internal coordinates          ....  75
Current Energy                          ....   -20.248831548 Eh
Current gradient norm                   ....     0.076355573 Eh/bohr
Maximum allowed component of the step   ....  0.300
Current trust radius                    ....  0.700
Updating the Hessian (BFGS)             .... done
Forming the augmented Hessian           .... done
Diagonalizing the augmented Hessian     .... done
Last element of RFO vector              ....  0.979433488
Lowest eigenvalues of augmented Hessian:
 -0.000220484  0.004078906  0.010003582  0.010781773  0.029075824
Length of the computed step             ....  0.206004086
The final length of the internal step   ....  0.206004086
Converting the step to Cartesian space:
 Initial RMS(Int)=    0.0237873029
Transforming coordinates:
 Iter   0:  RMS(Cart)=    0.1181262198 RMS(Int)=    0.7243888399
 Iter   5:  RMS(Cart)=    0.0000019906 RMS(Int)=    0.0000008864
 Iter  10:  RMS(Cart)=    0.0000000576 RMS(Int)=    0.0000000264
Imposing constraints:
 Iter   0:  RMS(Cart)=    0.0000000000 RMS(Int)=    0.0000000000
CONVERGED
done
Storing new coordinates                 .... done
The predicted energy change is          ....    -0.000114920
Previously predicted energy change      ....    -0.000168075
Actually observed energy change         ....    -0.000250353
Ratio of predicted to observed change   ....     1.489528091
New trust radius                        ....     0.700000000

                                .--------------------.
          ----------------------|Geometry convergence|-------------------------
          Item                value                   Tolerance       Converged
          ---------------------------------------------------------------------
          Energy change      -0.0002503528            0.0000050000      NO
          RMS gradient        0.0002927031            0.0001000000      NO
          MAX gradient        0.0013164890            0.0003000000      NO
          RMS step            0.0237873029            0.0020000000      NO
          MAX step            0.1044932190            0.0040000000      NO
          -------------------------------------------------------------------------
          ........................................................
          Max(Bonds)      0.0012      Max(Angles)    0.99
          Max(Dihed)        5.99      Max(Improp)    0.00
          ---------------------------------------------------------------------

The optimization has not yet converged - more geometry cycles are needed


    ---------------------------------------------------------------------------
                         Redundant Internal Coordinates
                            (Angstroem and degrees)

        Definition                    Value    dE/dq     Step     New-Value
    ----------------------------------------------------------------------------
     1. B(C   1,C   0)                1.4866 -0.000112  0.0004    1.4870   
     2. B(C   2,C   1)                1.3351 -0.000791  0.0012    1.3363   
     3. B(C   3,C   2)                1.4640 -0.000100  0.0006    1.4646   
     4. B(C   4,C   3)                1.5200  0.000310 -0.0010    1.5190   
     5. B(H   5,C   0)                1.0904  0.000018 -0.0001    1.0903   
     6. B(H   6,C   0)                1.0871 -0.000004  0.0001    1.0872   
     7. B(H   7,C   0)                1.0902 -0.000001  0.0000    1.0902   
     8. B(H   8,C   1)                1.0829  0.000127 -0.0004    1.0826   
     9. B(H   9,C   2)                1.0835  0.000152 -0.0005    1.0830   
    10. B(H  10,C   3)                1.0868 -0.032882 -0.0000    1.0868   
    11. B(H  11,C   3)                1.0932  0.000040 -0.0001    1.0931   
    12. B(H  12,C   4)                1.0866 -0.000019  0.0001    1.0868   
    13. B(H  13,C   4)                1.0905  0.000046 -0.0002    1.0903   
    14. B(H  14,C   4)                1.0874  0.000043 -0.0001    1.0873   
    15. B(O  15,H  10)                1.4000  0.008201 -0.0000    1.4000   
    16. B(H  16,O  15)                0.9577  0.000574 -0.0008    0.9569   
    17. A(H   5,C   0,H   7)          107.18 -0.000033    0.05    107.23   
    18. A(C   1,C   0,H   7)          110.28  0.000033   -0.02    110.26   
    19. A(H   6,C   0,H   7)          108.95 -0.000076    0.04    108.98   
    20. A(C   1,C   0,H   6)          111.38  0.000156   -0.11    111.27   
    21. A(H   5,C   0,H   6)          108.92 -0.000067    0.04    108.96   
    22. A(C   1,C   0,H   5)          110.02 -0.000022    0.02    110.04   
    23. A(C   0,C   1,C   2)          124.73  0.000266   -0.12    124.61   
    24. A(C   2,C   1,H   8)          119.50 -0.000297    0.15    119.65   
    25. A(C   0,C   1,H   8)          115.77  0.000031   -0.03    115.74   
    26. A(C   1,C   2,C   3)          124.59  0.000250   -0.11    124.48   
    27. A(C   1,C   2,H   9)          119.14 -0.000502    0.25    119.39   
    28. A(C   3,C   2,H   9)          116.27  0.000254   -0.14    116.13   
    29. A(C   2,C   3,C   4)          114.64  0.000123   -0.06    114.59   
    30. A(C   2,C   3,H  10)          110.04  0.000546   -0.33    109.71   
    31. A(C   4,C   3,H  10)          103.26 -0.000918    0.70    103.96   
    32. A(C   2,C   3,H  11)          111.78 -0.000121    0.02    111.80   
    33. A(C   4,C   3,H  11)          111.91 -0.000107    0.08    111.99   
    34. A(H  10,C   3,H  11)          104.34  0.000485   -0.39    103.95   
    35. A(C   3,C   4,H  12)          110.62 -0.000028   -0.02    110.60   
    36. A(C   3,C   4,H  13)          110.12 -0.000012    0.01    110.14   
    37. A(H  12,C   4,H  13)          108.43  0.000023    0.00    108.43   
    38. A(C   3,C   4,H  14)          110.71  0.000083   -0.06    110.66   
    39. A(H  12,C   4,H  14)          108.63  0.000095   -0.03    108.61   
    40. A(H  13,C   4,H  14)          108.24 -0.000163    0.09    108.33   
    41. A(C   3,H  10,O  15)          160.20 -0.005392    0.00    160.20   
    42. L(H  10,O  15,H  16,C   3, 1) 103.98 -0.001316    0.99    104.97   
    43. L(H  10,O  15,H  16,C   3, 2) 179.61  0.000043   -0.03    179.58   
    44. D(C   2,C   1,C   0,H   5)   -120.82 -0.000009    0.02   -120.80   
    45. D(C   2,C   1,C   0,H   6)      0.07 -0.000006    0.01      0.08   
    46. D(H   8,C   1,C   0,H   5)     59.34 -0.000006    0.01     59.35   
    47. D(H   8,C   1,C   0,H   6)   -179.77 -0.000003   -0.00   -179.77   
    48. D(C   2,C   1,C   0,H   7)    121.16  0.000025   -0.04    121.12   
    49. D(C   3,C   2,C   1,C   0)   -179.83  0.000247   -0.76   -180.59   
    50. D(C   3,C   2,C   1,H   8)      0.01  0.000244   -0.75     -0.74   
    51. D(H   9,C   2,C   1,C   0)      0.74 -0.000098    0.36      1.10   
    52. D(H   9,C   2,C   1,H   8)   -179.42 -0.000100    0.37   -179.06   
    53. D(C   4,C   3,C   2,C   1)    143.48 -0.000205    5.36    148.84   
    54. D(C   4,C   3,C   2,H   9)    -37.07  0.000127    4.28    -32.79   
    55. D(H  10,C   3,C   2,C   1)   -100.67 -0.000915    5.99    -94.69   
    56. D(H  10,C   3,C   2,H   9)     78.77 -0.000583    4.91     83.68   
    57. D(H  11,C   3,C   2,C   1)     14.77 -0.000053    5.32     20.09   
    58. D(H  12,C   4,C   3,C   2)    175.17  0.000110   -0.29    174.88   
    59. D(H  12,C   4,C   3,H  10)     55.46 -0.000016   -0.33     55.13   
    60. D(H  12,C   4,C   3,H  11)    -56.19 -0.000049   -0.28    -56.47   
    61. D(H  13,C   4,C   3,C   2)    -64.99  0.000112   -0.29    -65.28   
    62. D(H  13,C   4,C   3,H  10)    175.31 -0.000013   -0.33    174.97   
    63. D(H  13,C   4,C   3,H  11)     63.65 -0.000046   -0.28     63.37   
    64. D(O  15,H  10,C   3,C   2)      3.78  0.000068   -0.06      3.73   
    65. D(O  15,H  10,C   3,C   4)    126.60 -0.000042    0.13    126.73   
    66. D(O  15,H  10,C   3,H  11)   -116.27 -0.000342    0.31   -115.97   
    67. C_Y(C   3)                     -0.84 -0.008947    0.00     -0.84 C 
    68. C_X(C   3)                     -1.15 -0.002817   -0.00     -1.15 C 
    69. C_Z(C   3)                     -0.08 -0.017754    0.00     -0.08 C 
    70. C_Z(H  10)                     -0.95  0.013006   -0.00     -0.95 C 
    71. C_X(H  10)                     -1.47  0.000179    0.00     -1.47 C 
    72. C_Y(H  10)                     -1.41  0.005253   -0.00     -1.41 C 
    73. C_Z(O  15)                     -2.24  0.004748   -0.00     -2.24 C 
    74. C_Y(O  15)                     -1.93  0.003694   -0.00     -1.93 C 
    75. C_X(O  15)                     -1.50  0.002638   -0.00     -1.50 C 
    ----------------------------------------------------------------------------

Geometry step timings:
Preparation and reading OPT file:      0.000 s ( 0.156 %)
Internal coordinates            :      0.000 s ( 0.234 %)
B/P matrices and projection     :      0.002 s (17.875 %)
Hessian update/contruction      :      0.006 s (46.531 %)
Making the step                 :      0.001 s ( 5.367 %)
Converting the step to Cartesian:      0.000 s ( 1.438 %)
Storing new data                :      0.000 s ( 0.195 %)
Checking convergence            :      0.000 s ( 0.281 %)
Final printing                  :      0.004 s (27.906 %)
Total time                      :      0.013 s

Time for energy+gradient        :      0.061 s
Time for complete geometry iter :      0.090 s

         *************************************************************
         *                GEOMETRY OPTIMIZATION CYCLE   9            *
         *************************************************************
---------------------------------
CARTESIAN COORDINATES (ANGSTROEM)
---------------------------------
  C     2.494305    0.363453   -0.570261
  C     1.292557   -0.435808   -0.212247
  C     0.031633   -0.045400   -0.420612
  C    -1.149753   -0.840407   -0.078009
  C    -2.371921   -0.023543    0.304752
  H     3.119434   -0.193987   -1.268273
  H     2.216537    1.311458   -1.024240
  H     3.096220    0.558309    0.317530
  H     1.486726   -1.395281    0.249977
  H    -0.157400    0.908541   -0.897312
  H    -1.474726   -1.407278   -0.946451
  H    -0.920797   -1.607224    0.666584
  H    -3.231626   -0.670472    0.457920
  H    -2.183312    0.523733    1.228714
  H    -2.612820    0.694798   -0.475168
  O    -1.495615   -1.933353   -2.243682
  H    -0.717886   -1.573071   -2.669005

----------------------------
CARTESIAN COORDINATES (A.U.)
----------------------------
  NO LB    ZA    FRAG    MASS        X           Y           Z
   0 C   6.0000    0    12.011    4.713553    0.686827   -1.077638
   1 C   6.0000    0    12.011    2.442579   -0.823559   -0.401088
   2 C   6.0000    0    12.011    0.059777   -0.085793   -0.794841
   3 C   6.0000    0    12.011   -2.172718   -1.588138   -0.147416
   4 C   6.0000    0    12.011   -4.482280   -0.044490    0.575899
   5 H   1.0000    0     1.008    5.894875   -0.366581   -2.396689
   6 H   1.0000    0     1.008    4.188648    2.478296   -1.935533
   7 H   1.0000    0     1.008    5.851008    1.055051    0.600045
   8 H   1.0000    0     1.008    2.809506   -2.636698    0.472388
   9 H   1.0000    0     1.008   -0.297442    1.716893   -1.695674
  10 H   1.0000    0     1.008   -2.786828   -2.659370   -1.788533
  11 H   1.0000    0     1.008   -1.740054   -3.037214    1.259661
  12 H   1.0000    0     1.008   -6.106889   -1.267008    0.865344
  13 H   1.0000    0     1.008   -4.125862    0.989712    2.321932
  14 H   1.0000    0     1.008   -4.937514    1.312977   -0.897938
  15 O   8.0000    0    15.999   -2.826303   -3.653509   -4.239944
  16 H   1.0000    0     1.008   -1.356608   -2.972674   -5.043689

      -----------------------------------------------------------      
     |                   =====================                   |     
     |                           x T B                           |     
     |                   =====================                   |     
     |                         S. Grimme                         |     
     |          Mulliken Center for Theoretical Chemistry        |     
     |                    University of Bonn                     |     
      -----------------------------------------------------------      

   * xtb version 6.7.1 (edcfbbe) compiled by 'albert@albert-system' on 2024-07-22

   xtb is free software: you can redistribute it and/or modify it under
   the terms of the GNU Lesser General Public License as published by
   the Free Software Foundation, either version 3 of the License, or
   (at your option) any later version.
   
   xtb is distributed in the hope that it will be useful,
   but WITHOUT ANY WARRANTY; without even the implied warranty of
   MERCHANTABILITY or FITNESS FOR A PARTICULAR PURPOSE.  See the
   GNU Lesser General Public License for more details.
   
   Cite this work as:
   * C. Bannwarth, E. Caldeweyher, S. Ehlert, A. Hansen, P. Pracht,
     J. Seibert, S. Spicher, S. Grimme, WIREs Comput. Mol. Sci., 2020, 11,
     e01493. DOI: 10.1002/wcms.1493
   
   for GFN2-xTB:
   * C. Bannwarth, S. Ehlert and S. Grimme., J. Chem. Theory Comput., 2019,
     15, 1652-1671. DOI: 10.1021/acs.jctc.8b01176
   for GFN1-xTB:
   * S. Grimme, C. Bannwarth, P. Shushkov, J. Chem. Theory Comput., 2017,
     13, 1989-2009. DOI: 10.1021/acs.jctc.7b00118
   for GFN0-xTB:
   * P. Pracht, E. Caldeweyher, S. Ehlert, S. Grimme, ChemRxiv, 2019, preprint.
     DOI: 10.26434/chemrxiv.8326202.v1
   for GFN-FF:
   * S. Spicher and S. Grimme, Angew. Chem. Int. Ed., 2020, 59, 15665-15673.
     DOI: 10.1002/anie.202004239
   
   for ALPB and GBSA implicit solvation:
   * S. Ehlert, M. Stahn, S. Spicher, S. Grimme, J. Chem. Theory Comput.,
     2021, 17, 4250-4261. DOI: 10.1021/acs.jctc.1c00471
   
   for ddCOSMO and CPCM-X implicit solvation:
   * M. Stahn, S. Ehlert, S. Grimme, J. Phys. Chem. A,
     2023, XX, XXXX-XXXX. DOI: 10.1021/acs.jpca.3c04382
   
   for DFT-D4:
   * E. Caldeweyher, C. Bannwarth and S. Grimme, J. Chem. Phys., 2017,
     147, 034112. DOI: 10.1063/1.4993215
   * E. Caldeweyher, S. Ehlert, A. Hansen, H. Neugebauer, S. Spicher,
     C. Bannwarth and S. Grimme, J. Chem. Phys., 2019, 150, 154122.
     DOI: 10.1063/1.5090222
   * E. Caldeweyher, J.-M. Mewes, S. Ehlert and S. Grimme, Phys. Chem. Chem. Phys.
     2020, 22, 8499-8512. DOI: 10.1039/D0CP00502A
   
   for sTDA-xTB:
   * S. Grimme and C. Bannwarth, J. Chem. Phys., 2016, 145, 054103.
     DOI: 10.1063/1.4959605
   
   in the mass-spec context:
   * V. Asgeirsson, C. Bauer and S. Grimme, Chem. Sci., 2017, 8, 4879.
     DOI: 10.1039/c7sc00601b
   * J. Koopman and S. Grimme, ACS Omega 2019, 4, 12, 15120-15133.
     DOI: 10.1021/acsomega.9b02011
   
   for metadynamics refer to:
   * S. Grimme, J. Chem. Theory Comput., 2019, 155, 2847-2862
     DOI: 10.1021/acs.jctc.9b00143
   
   for SPH calculations refer to:
   * S. Spicher and S. Grimme, J. Chem. Theory Comput., 2021, 17, 1701-1714
     DOI: 10.1021/acs.jctc.0c01306
   
   for ONIOM refer to:
   * C. Plett, A. Katbashev, S. Ehlert, S. Grimme, M. Bursch,
     Phys. Chem. Chem. Phys., 2023, 25, 17860-17868. DOI: 10.1039/D3CP02178E
   
   for DIPRO refer to:
   * J. Kohn, N. Gildemeister, S. Grimme, D. Fazzi, A. Hansen,
     J. Chem. Phys., 2023, just accepted.
   
   for PTB refer to:
   * S. Grimme, M. Mueller, A. Hansen, J. Chem. Phys., 2023, 158, 124111.
     DOI: 10.1063/5.0137838
   
   with help from (in alphabetical order)
   P. Atkinson, C. Bannwarth, F. Bohle, G. Brandenburg, E. Caldeweyher
   M. Checinski, S. Dohm, S. Ehlert, S. Ehrlich, I. Gerasimov, C. Hölzer
   A. Katbashev, J. Kohn, J. Koopman, C. Lavigne, S. Lehtola, F. März, M. Müller,
   F. Musil, H. Neugebauer, J. Pisarek, C. Plett, P. Pracht, F. Pultar,
   J. Seibert, P. Shushkov, S. Spicher, M. Stahn, M. Steiner, T. Strunk,
   J. Stückrath, T. Rose, and J. Unsleber
   
 * started run on 2026/09/19 at 14:44:22.717     
   ID    Z sym.   atoms
    1    6 C      1-5
    2    1 H      6-15, 17
    3    8 O      16

           -------------------------------------------------
          |                Calculation Setup                |
           -------------------------------------------------

          program call               : /apps/eb/ORCA/6.1.1-gompi-2023b-avx2/bin/otool_xtb opt_XTB.xyz --grad -c 0 -u 1 -P 8 --namespace opt --input opt_XTB.input.tmp --acc 0.200000
          hostname                   : a1-8
          calculation namespace      : opt
          coordinate file            : opt_XTB.xyz
          omp threads                :                     8


molecular fragmentation (1/2 indicates fragments):
11111111111111122
# atoms in fragment 1/2:    15     2
 fragment masses (1/2) :       70.13       17.01
CMA distance (Bohr)    :   5.829
constraining FC (au)   :  0.0500

           -------------------------------------------------
          |                 G F N 2 - x T B                 |
           -------------------------------------------------

        Reference                      10.1021/acs.jctc.8b01176
      * Hamiltonian:
        H0-scaling (s, p, d)           1.850000    2.230000    2.230000
        zeta-weighting                 0.500000
      * Dispersion:
        s8                             2.700000
        a1                             0.520000
        a2                             5.000000
        s9                             5.000000
      * Repulsion:
        kExp                           1.500000    1.000000
        rExp                           1.000000
      * Coulomb:
        alpha                          2.000000
        third order                    shell-resolved
        anisotropic                    true
        a3                             3.000000
        a5                             4.000000
        cn-shift                       1.200000
        cn-exp                         4.000000
        max-rad                        5.000000

q/qsh data taken from xtbrestart
CAMM data taken from xtbrestart

          ...................................................
          :                      SETUP                      :
          :.................................................:
          :  # basis functions                  35          :
          :  # atomic orbitals                  35          :
          :  # shells                           23          :
          :  # electrons                        37          :
          :  max. iterations                   250          :
          :  Hamiltonian                  GFN2-xTB          :
          :  restarted?                       true          :
          :  GBSA solvation                  false          :
          :  PC potential                    false          :
          :  electronic temp.          300.0000000     K    :
          :  accuracy                    0.2000000          :
          :  -> integral cutoff          0.3198970E+02      :
          :  -> integral neglect         0.2000000E-08      :
          :  -> SCF convergence          0.2000000E-06 Eh   :
          :  -> wf. convergence          0.2000000E-04 e    :
          :  Broyden damping             0.4000000          :
          :  net charge                          0          :
          :  unpaired electrons                  1          :
          ...................................................

 iter      E             dE          RMSdq      gap      omega  full diag
   1    -20.5385960 -0.205386E+02  0.398E-01    3.73       0.0  T
   2    -20.5385999 -0.385640E-05  0.233E-01    3.72       1.0  T
   3    -20.5385929  0.699126E-05  0.229E-02    3.74       1.1  T
   4    -20.5386018 -0.888486E-05  0.499E-03    3.72       4.9  T
   5    -20.5386020 -0.171283E-06  0.267E-03    3.72       9.1  T
   6    -20.5386020 -0.282362E-07  0.652E-04    3.72      37.2  T
   7    -20.5386020 -0.168698E-08  0.176E-04    3.72     138.1  T
   8    -20.5386020 -0.485230E-10  0.649E-05    3.72     373.9  T

   *** convergence criteria satisfied after 8 iterations ***

         #    Occupation            Energy/Eh            Energy/eV
      -------------------------------------------------------------
         1        2.0000           -0.6461884             -17.5837
       ...           ...                  ...                  ...
        13        2.0000           -0.4732878             -12.8788
        14        2.0000           -0.4589008             -12.4873
        15        2.0000           -0.4534656             -12.3394
        16        2.0000           -0.4460061             -12.1364
        17        2.0000           -0.4130339             -11.2392
        18        2.0000           -0.3951782             -10.7533
        19        1.0000           -0.3483261              -9.4784 (HOMO)
        20                         -0.2114886              -5.7549 (LUMO)
        21                          0.0812099               2.2098
        22                          0.1013998               2.7592
        23                          0.1355776               3.6893
        24                          0.1594976               4.3402
       ...                                ...                  ...
        35                          0.5916256              16.0990
      -------------------------------------------------------------
                  HL-Gap            0.1368374 Eh            3.7235 eV
             Fermi-level           -0.3258298 Eh           -8.8663 eV

 SCC (total)                   0 d,  0 h,  0 min,  0.013 sec
 SCC setup                      ...        0 min,  0.001 sec (  4.795%)
 Dispersion                     ...        0 min,  0.000 sec (  1.838%)
 classical contributions        ...        0 min,  0.000 sec (  1.186%)
 integral evaluation            ...        0 min,  0.001 sec (  4.272%)
 iterations                     ...        0 min,  0.009 sec ( 67.876%)
 molecular gradient             ...        0 min,  0.002 sec ( 15.909%)
 printout                       ...        0 min,  0.001 sec (  3.975%)

         :::::::::::::::::::::::::::::::::::::::::::::::::::::
         ::                     SUMMARY                     ::
         :::::::::::::::::::::::::::::::::::::::::::::::::::::
         :: total energy             -20.248952428744 Eh    ::
         :: gradient norm              0.076992351185 Eh/a0 ::
         :: HOMO-LUMO gap              3.723536500909 eV    ::
         ::.................................................::
         :: SCC energy               -20.538577473906 Eh    ::
         :: -> isotropic ES            0.047041909484 Eh    ::
         :: -> anisotropic ES         -0.001840311912 Eh    ::
         :: -> anisotropic XC          0.010318775199 Eh    ::
         :: -> dispersion             -0.008509731098 Eh    ::
         :: repulsion energy           0.289625045162 Eh    ::
         :: add. restraining           0.000000000000 Eh    ::
         :: total charge               0.000000000000 e     ::
         :::::::::::::::::::::::::::::::::::::::::::::::::::::


Property printout bound to 'properties.out'

           -------------------------------------------------
          | TOTAL ENERGY              -20.248952428744 Eh   |
          | GRADIENT NORM               0.076992351185 Eh/α |
          | HOMO-LUMO GAP               3.723536500909 eV   |
           -------------------------------------------------

------------------------------------------------------------------------
 * finished run on 2026/09/19 at 14:44:22.762     
------------------------------------------------------------------------
 total:
 * wall-time:     0 d,  0 h,  0 min,  0.044 sec
 *  cpu-time:     0 d,  0 h,  0 min,  0.296 sec
 * ratio c/w:     6.654 speedup
 SCF:
 * wall-time:     0 d,  0 h,  0 min,  0.014 sec
 *  cpu-time:     0 d,  0 h,  0 min,  0.094 sec
 * ratio c/w:     6.938 speedup


-------------------------   --------------------
FINAL SINGLE POINT ENERGY       -20.248952428740
-------------------------   --------------------


-------------
DIPOLE MOMENT
-------------
                                X             Y             Z
Total Dipole Moment    :      0.97800       0.98200       0.89600
                        -----------------------------------------
Magnitude (a.u.)       :      1.65034
Magnitude (Debye)      :      4.19483


------------------
CARTESIAN GRADIENT
------------------

   1   C   :    0.000178309   -0.000140419   -0.000034483
   2   C   :    0.000116833    0.000032763    0.000280718
   3   C   :   -0.000314106    0.000154903   -0.000197226
   4   C   :   -0.010213574   -0.026380731   -0.045720175
   5   C   :   -0.000265305    0.000380415    0.000063134
   6   H   :   -0.000023556    0.000009517   -0.000016496
   7   H   :   -0.000075753    0.000025381   -0.000004091
   8   H   :   -0.000054644    0.000008271    0.000038185
   9   H   :    0.000123667   -0.000032500   -0.000079508
  10   H   :   -0.000135525   -0.000036671    0.000007528
  11   H   :    0.006290180    0.023875064    0.048924059
  12   H   :    0.000002406    0.000423766    0.000315194
  13   H   :    0.000075047   -0.000108969   -0.000027381
  14   H   :    0.000029755    0.000012362   -0.000047379
  15   H   :    0.000079566    0.000007287   -0.000005002
  16   O   :    0.004192449    0.001756689   -0.003539277
  17   H   :   -0.000005750    0.000012871    0.000042200

Difference to translation invariance:
           :    0.0000000000   -0.0000000000   -0.0000000000

Difference to rotation invariance:
           :   -0.0000000341    0.0000000565   -0.0000000279

Norm of the Cartesian gradient     ...    0.0769923512
RMS gradient                       ...    0.0107810856
MAX gradient                       ...    0.0489240595
------------------------------------------------------------------------------
                         ORCA GEOMETRY RELAXATION STEP
------------------------------------------------------------------------------

Reading the OPT-File                    .... done
Getting information on internals        .... done
Copying old internal coords+grads       .... done
Making the new internal coordinates     .... (2022 redundants) done
Validating the new internal coordinates .... (2022 redundants) done
Calculating the B-matrix                .... done
Calculating the G,G- and P matrices     .... done
Transforming gradient to internals      .... done
Projecting the internal gradient        .... done
Number of atoms                         ....  17
Number of internal coordinates          ....  75
Current Energy                          ....   -20.248952429 Eh
Current gradient norm                   ....     0.076992351 Eh/bohr
Maximum allowed component of the step   ....  0.300
Current trust radius                    ....  0.700
Updating the Hessian (BFGS)             .... done
Forming the augmented Hessian           .... done
Diagonalizing the augmented Hessian     .... done
Last element of RFO vector              ....  0.999625337
Lowest eigenvalues of augmented Hessian:
 -0.000008818  0.003765992  0.010003246  0.010781795  0.028979606
Length of the computed step             ....  0.027381501
The final length of the internal step   ....  0.027381501
Converting the step to Cartesian space:
 Initial RMS(Int)=    0.0031617434
Transforming coordinates:
 Iter   0:  RMS(Cart)=    0.0158236805 RMS(Int)=    0.0031606482
 Iter   5:  RMS(Cart)=    0.0000002350 RMS(Int)=    0.0000001079
Imposing constraints:
 Iter   0:  RMS(Cart)=    0.0000000000 RMS(Int)=    0.0000000000
CONVERGED
done
Storing new coordinates                 .... done
The predicted energy change is          ....    -0.000004413
Previously predicted energy change      ....    -0.000114920
Actually observed energy change         ....    -0.000120880
Ratio of predicted to observed change   ....     1.051861604
New trust radius                        ....     0.700000000

                                .--------------------.
          ----------------------|Geometry convergence|-------------------------
          Item                value                   Tolerance       Converged
          ---------------------------------------------------------------------
          Energy change      -0.0001208804            0.0000050000      NO
          RMS gradient        0.0001163088            0.0001000000      NO
          MAX gradient        0.0004159061            0.0003000000      NO
          RMS step            0.0031617434            0.0020000000      NO
          MAX step            0.0151454585            0.0040000000      NO
          -------------------------------------------------------------------------
          ........................................................
          Max(Bonds)      0.0005      Max(Angles)    0.24
          Max(Dihed)        0.87      Max(Improp)    0.00
          ---------------------------------------------------------------------

The optimization has not yet converged - more geometry cycles are needed


    ---------------------------------------------------------------------------
                         Redundant Internal Coordinates
                            (Angstroem and degrees)

        Definition                    Value    dE/dq     Step     New-Value
    ----------------------------------------------------------------------------
     1. B(C   1,C   0)                1.4870 -0.000029  0.0000    1.4870   
     2. B(C   2,C   1)                1.3363  0.000307 -0.0001    1.3362   
     3. B(C   3,C   2)                1.4646 -0.000136  0.0002    1.4648   
     4. B(C   4,C   3)                1.5190  0.000217 -0.0005    1.5185   
     5. B(H   5,C   0)                1.0903 -0.000008 -0.0000    1.0903   
     6. B(H   6,C   0)                1.0872  0.000043 -0.0001    1.0871   
     7. B(H   7,C   0)                1.0902  0.000002 -0.0000    1.0902   
     8. B(H   8,C   1)                1.0826  0.000017 -0.0001    1.0825   
     9. B(H   9,C   2)                1.0830 -0.000012 -0.0000    1.0830   
    10. B(H  10,C   3)                1.0868 -0.033034 -0.0000    1.0868   
    11. B(H  11,C   3)                1.0931 -0.000082  0.0001    1.0932   
    12. B(H  12,C   4)                1.0868  0.000002  0.0000    1.0868   
    13. B(H  13,C   4)                1.0903 -0.000029  0.0000    1.0903   
    14. B(H  14,C   4)                1.0873 -0.000009  0.0000    1.0874   
    15. B(O  15,H  10)                1.4000  0.008326  0.0000    1.4000   
    16. B(H  16,O  15)                0.9569 -0.000019 -0.0000    0.9568   
    17. A(H   5,C   0,H   7)          107.23  0.000075   -0.01    107.21   
    18. A(C   1,C   0,H   7)          110.26 -0.000058    0.01    110.26   
    19. A(H   6,C   0,H   7)          108.98  0.000027    0.00    108.99   
    20. A(C   1,C   0,H   6)          111.27 -0.000107    0.01    111.28   
    21. A(H   5,C   0,H   6)          108.96  0.000032   -0.00    108.96   
    22. A(C   1,C   0,H   5)          110.04  0.000039   -0.01    110.03   
    23. A(C   0,C   1,C   2)          124.61 -0.000011   -0.01    124.60   
    24. A(C   2,C   1,H   8)          119.65  0.000130   -0.01    119.65   
    25. A(C   0,C   1,H   8)          115.74 -0.000118    0.02    115.75   
    26. A(C   1,C   2,C   3)          124.48  0.000075   -0.03    124.45   
    27. A(C   1,C   2,H   9)          119.38  0.000108    0.01    119.39   
    28. A(C   3,C   2,H   9)          116.12 -0.000181    0.02    116.14   
    29. A(C   2,C   3,C   4)          114.58 -0.000214    0.08    114.66   
    30. A(C   2,C   3,H  10)          109.72  0.000012   -0.01    109.71   
    31. A(C   4,C   3,H  10)          103.96 -0.000128    0.13    104.09   
    32. A(C   2,C   3,H  11)          111.79  0.000047    0.00    111.79   
    33. A(C   4,C   3,H  11)          111.97 -0.000078    0.03    112.00   
    34. A(H  10,C   3,H  11)          103.95  0.000416   -0.24    103.71   
    35. A(C   3,C   4,H  12)          110.60 -0.000165    0.03    110.63   
    36. A(C   3,C   4,H  13)          110.14  0.000008    0.00    110.14   
    37. A(H  12,C   4,H  13)          108.43  0.000092   -0.02    108.41   
    38. A(C   3,C   4,H  14)          110.66 -0.000059    0.01    110.66   
    39. A(H  12,C   4,H  14)          108.61  0.000126   -0.02    108.58   
    40. A(H  13,C   4,H  14)          108.33  0.000006    0.01    108.34   
    41. A(C   3,H  10,O  15)          160.20 -0.005539    0.00    160.20   
    42. L(H  10,O  15,H  16,C   3, 1) 104.97 -0.000073    0.05    105.02   
    43. L(H  10,O  15,H  16,C   3, 2) 179.58  0.000000   -0.00    179.58   
    44. D(C   2,C   1,C   0,H   5)   -120.80  0.000041   -0.04   -120.83   
    45. D(C   2,C   1,C   0,H   6)      0.08  0.000037   -0.03      0.04   
    46. D(H   8,C   1,C   0,H   5)     59.35 -0.000022    0.07     59.42   
    47. D(H   8,C   1,C   0,H   6)   -179.77 -0.000025    0.07   -179.71   
    48. D(C   2,C   1,C   0,H   7)    121.12 -0.000040   -0.02    121.11   
    49. D(C   3,C   2,C   1,C   0)    179.41  0.000045   -0.09    179.33   
    50. D(C   3,C   2,C   1,H   8)     -0.74  0.000109   -0.19     -0.93   
    51. D(H   9,C   2,C   1,C   0)      1.10 -0.000062    0.10      1.19   
    52. D(H   9,C   2,C   1,H   8)   -179.06  0.000002   -0.01   -179.07   
    53. D(C   4,C   3,C   2,C   1)    148.84 -0.000000    0.66    149.50   
    54. D(C   4,C   3,C   2,H   9)    -32.79  0.000108    0.49    -32.31   
    55. D(H  10,C   3,C   2,C   1)    -94.68 -0.000288    0.87    -93.82   
    56. D(H  10,C   3,C   2,H   9)     83.68 -0.000180    0.69     84.37   
    57. D(H  11,C   3,C   2,C   1)     20.09  0.000255    0.57     20.66   
    58. D(H  12,C   4,C   3,C   2)    174.87 -0.000006   -0.01    174.87   
    59. D(H  12,C   4,C   3,H  10)     55.13  0.000182   -0.13     55.00   
    60. D(H  12,C   4,C   3,H  11)    -56.47 -0.000199    0.07    -56.40   
    61. D(H  13,C   4,C   3,C   2)    -65.28  0.000008   -0.02    -65.30   
    62. D(H  13,C   4,C   3,H  10)    174.98  0.000196   -0.14    174.84   
    63. D(H  13,C   4,C   3,H  11)     63.38 -0.000185    0.06     63.44   
    64. D(O  15,H  10,C   3,C   2)      3.73  0.000144   -0.06      3.67   
    65. D(O  15,H  10,C   3,C   4)    126.72 -0.000178    0.11    126.83   
    66. D(O  15,H  10,C   3,H  11)   -115.96 -0.000147    0.08   -115.88   
    67. C_Y(C   3)                     -0.84 -0.008965   -0.00     -0.84 C 
    68. C_X(C   3)                     -1.15 -0.002787    0.00     -1.15 C 
    69. C_Z(C   3)                     -0.08 -0.017852   -0.00     -0.08 C 
    70. C_Z(H  10)                     -0.95  0.013128    0.00     -0.95 C 
    71. C_X(H  10)                     -1.47  0.000105    0.00     -1.47 C 
    72. C_Y(H  10)                     -1.41  0.005250    0.00     -1.41 C 
    73. C_Z(O  15)                     -2.24  0.004724    0.00     -2.24 C 
    74. C_Y(O  15)                     -1.93  0.003715    0.00     -1.93 C 
    75. C_X(O  15)                     -1.50  0.002682   -0.00     -1.50 C 
    ----------------------------------------------------------------------------

Geometry step timings:
Preparation and reading OPT file:      0.000 s ( 0.165 %)
Internal coordinates            :      0.000 s ( 0.231 %)
B/P matrices and projection     :      0.002 s (14.057 %)
Hessian update/contruction      :      0.006 s (48.029 %)
Making the step                 :      0.001 s ( 5.785 %)
Converting the step to Cartesian:      0.000 s ( 1.405 %)
Storing new data                :      0.000 s ( 0.198 %)
Checking convergence            :      0.000 s ( 0.314 %)
Final printing                  :      0.004 s (29.791 %)
Total time                      :      0.012 s

Time for energy+gradient        :      0.057 s
Time for complete geometry iter :      0.085 s

         *************************************************************
         *                GEOMETRY OPTIMIZATION CYCLE  10            *
         *************************************************************
---------------------------------
CARTESIAN COORDINATES (ANGSTROEM)
---------------------------------
  C     2.495813    0.351942   -0.585932
  C     1.293090   -0.445257   -0.226441
  C     0.032628   -0.046418   -0.420495
  C    -1.149753   -0.840407   -0.078009
  C    -2.370635   -0.024443    0.308825
  H     3.112731   -0.201524   -1.294325
  H     2.219209    1.305715   -1.028260
  H     3.105812    0.534930    0.298857
  H     1.485959   -1.409707    0.225732
  H    -0.155456    0.912668   -0.887093
  H    -1.474726   -1.407278   -0.946451
  H    -0.920482   -1.610582    0.663200
  H    -3.230698   -0.671069    0.461362
  H    -2.180550    0.519860    1.234269
  H    -2.612521    0.696294   -0.468594
  O    -1.495615   -1.933353   -2.243682
  H    -0.718093   -1.573571   -2.669729

----------------------------
CARTESIAN COORDINATES (A.U.)
----------------------------
  NO LB    ZA    FRAG    MASS        X           Y           Z
   0 C   6.0000    0    12.011    4.716403    0.665074   -1.107251
   1 C   6.0000    0    12.011    2.443586   -0.841414   -0.427912
   2 C   6.0000    0    12.011    0.061658   -0.087718   -0.794621
   3 C   6.0000    0    12.011   -2.172718   -1.588138   -0.147416
   4 C   6.0000    0    12.011   -4.479851   -0.046191    0.583595
   5 H   1.0000    0     1.008    5.882210   -0.380824   -2.445921
   6 H   1.0000    0     1.008    4.193697    2.467444   -1.943130
   7 H   1.0000    0     1.008    5.869134    1.010871    0.564759
   8 H   1.0000    0     1.008    2.808056   -2.663961    0.426571
   9 H   1.0000    0     1.008   -0.293769    1.724692   -1.676363
  10 H   1.0000    0     1.008   -2.786828   -2.659370   -1.788533
  11 H   1.0000    0     1.008   -1.739459   -3.043560    1.253267
  12 H   1.0000    0     1.008   -6.105135   -1.268136    0.871848
  13 H   1.0000    0     1.008   -4.120643    0.982392    2.332431
  14 H   1.0000    0     1.008   -4.936948    1.315805   -0.885514
  15 O   8.0000    0    15.999   -2.826303   -3.653509   -4.239944
  16 H   1.0000    0     1.008   -1.356999   -2.973618   -5.045057

      -----------------------------------------------------------      
     |                   =====================                   |     
     |                           x T B                           |     
     |                   =====================                   |     
     |                         S. Grimme                         |     
     |          Mulliken Center for Theoretical Chemistry        |     
     |                    University of Bonn                     |     
      -----------------------------------------------------------      

   * xtb version 6.7.1 (edcfbbe) compiled by 'albert@albert-system' on 2024-07-22

   xtb is free software: you can redistribute it and/or modify it under
   the terms of the GNU Lesser General Public License as published by
   the Free Software Foundation, either version 3 of the License, or
   (at your option) any later version.
   
   xtb is distributed in the hope that it will be useful,
   but WITHOUT ANY WARRANTY; without even the implied warranty of
   MERCHANTABILITY or FITNESS FOR A PARTICULAR PURPOSE.  See the
   GNU Lesser General Public License for more details.
   
   Cite this work as:
   * C. Bannwarth, E. Caldeweyher, S. Ehlert, A. Hansen, P. Pracht,
     J. Seibert, S. Spicher, S. Grimme, WIREs Comput. Mol. Sci., 2020, 11,
     e01493. DOI: 10.1002/wcms.1493
   
   for GFN2-xTB:
   * C. Bannwarth, S. Ehlert and S. Grimme., J. Chem. Theory Comput., 2019,
     15, 1652-1671. DOI: 10.1021/acs.jctc.8b01176
   for GFN1-xTB:
   * S. Grimme, C. Bannwarth, P. Shushkov, J. Chem. Theory Comput., 2017,
     13, 1989-2009. DOI: 10.1021/acs.jctc.7b00118
   for GFN0-xTB:
   * P. Pracht, E. Caldeweyher, S. Ehlert, S. Grimme, ChemRxiv, 2019, preprint.
     DOI: 10.26434/chemrxiv.8326202.v1
   for GFN-FF:
   * S. Spicher and S. Grimme, Angew. Chem. Int. Ed., 2020, 59, 15665-15673.
     DOI: 10.1002/anie.202004239
   
   for ALPB and GBSA implicit solvation:
   * S. Ehlert, M. Stahn, S. Spicher, S. Grimme, J. Chem. Theory Comput.,
     2021, 17, 4250-4261. DOI: 10.1021/acs.jctc.1c00471
   
   for ddCOSMO and CPCM-X implicit solvation:
   * M. Stahn, S. Ehlert, S. Grimme, J. Phys. Chem. A,
     2023, XX, XXXX-XXXX. DOI: 10.1021/acs.jpca.3c04382
   
   for DFT-D4:
   * E. Caldeweyher, C. Bannwarth and S. Grimme, J. Chem. Phys., 2017,
     147, 034112. DOI: 10.1063/1.4993215
   * E. Caldeweyher, S. Ehlert, A. Hansen, H. Neugebauer, S. Spicher,
     C. Bannwarth and S. Grimme, J. Chem. Phys., 2019, 150, 154122.
     DOI: 10.1063/1.5090222
   * E. Caldeweyher, J.-M. Mewes, S. Ehlert and S. Grimme, Phys. Chem. Chem. Phys.
     2020, 22, 8499-8512. DOI: 10.1039/D0CP00502A
   
   for sTDA-xTB:
   * S. Grimme and C. Bannwarth, J. Chem. Phys., 2016, 145, 054103.
     DOI: 10.1063/1.4959605
   
   in the mass-spec context:
   * V. Asgeirsson, C. Bauer and S. Grimme, Chem. Sci., 2017, 8, 4879.
     DOI: 10.1039/c7sc00601b
   * J. Koopman and S. Grimme, ACS Omega 2019, 4, 12, 15120-15133.
     DOI: 10.1021/acsomega.9b02011
   
   for metadynamics refer to:
   * S. Grimme, J. Chem. Theory Comput., 2019, 155, 2847-2862
     DOI: 10.1021/acs.jctc.9b00143
   
   for SPH calculations refer to:
   * S. Spicher and S. Grimme, J. Chem. Theory Comput., 2021, 17, 1701-1714
     DOI: 10.1021/acs.jctc.0c01306
   
   for ONIOM refer to:
   * C. Plett, A. Katbashev, S. Ehlert, S. Grimme, M. Bursch,
     Phys. Chem. Chem. Phys., 2023, 25, 17860-17868. DOI: 10.1039/D3CP02178E
   
   for DIPRO refer to:
   * J. Kohn, N. Gildemeister, S. Grimme, D. Fazzi, A. Hansen,
     J. Chem. Phys., 2023, just accepted.
   
   for PTB refer to:
   * S. Grimme, M. Mueller, A. Hansen, J. Chem. Phys., 2023, 158, 124111.
     DOI: 10.1063/5.0137838
   
   with help from (in alphabetical order)
   P. Atkinson, C. Bannwarth, F. Bohle, G. Brandenburg, E. Caldeweyher
   M. Checinski, S. Dohm, S. Ehlert, S. Ehrlich, I. Gerasimov, C. Hölzer
   A. Katbashev, J. Kohn, J. Koopman, C. Lavigne, S. Lehtola, F. März, M. Müller,
   F. Musil, H. Neugebauer, J. Pisarek, C. Plett, P. Pracht, F. Pultar,
   J. Seibert, P. Shushkov, S. Spicher, M. Stahn, M. Steiner, T. Strunk,
   J. Stückrath, T. Rose, and J. Unsleber
   
 * started run on 2026/09/19 at 14:44:22.802     
   ID    Z sym.   atoms
    1    6 C      1-5
    2    1 H      6-15, 17
    3    8 O      16

           -------------------------------------------------
          |                Calculation Setup                |
           -------------------------------------------------

          program call               : /apps/eb/ORCA/6.1.1-gompi-2023b-avx2/bin/otool_xtb opt_XTB.xyz --grad -c 0 -u 1 -P 8 --namespace opt --input opt_XTB.input.tmp --acc 0.200000
          hostname                   : a1-8
          calculation namespace      : opt
          coordinate file            : opt_XTB.xyz
          omp threads                :                     8


molecular fragmentation (1/2 indicates fragments):
11111111111111122
# atoms in fragment 1/2:    15     2
 fragment masses (1/2) :       70.13       17.01
CMA distance (Bohr)    :   5.819
constraining FC (au)   :  0.0500

           -------------------------------------------------
          |                 G F N 2 - x T B                 |
           -------------------------------------------------

        Reference                      10.1021/acs.jctc.8b01176
      * Hamiltonian:
        H0-scaling (s, p, d)           1.850000    2.230000    2.230000
        zeta-weighting                 0.500000
      * Dispersion:
        s8                             2.700000
        a1                             0.520000
        a2                             5.000000
        s9                             5.000000
      * Repulsion:
        kExp                           1.500000    1.000000
        rExp                           1.000000
      * Coulomb:
        alpha                          2.000000
        third order                    shell-resolved
        anisotropic                    true
        a3                             3.000000
        a5                             4.000000
        cn-shift                       1.200000
        cn-exp                         4.000000
        max-rad                        5.000000

q/qsh data taken from xtbrestart
CAMM data taken from xtbrestart

          ...................................................
          :                      SETUP                      :
          :.................................................:
          :  # basis functions                  35          :
          :  # atomic orbitals                  35          :
          :  # shells                           23          :
          :  # electrons                        37          :
          :  max. iterations                   250          :
          :  Hamiltonian                  GFN2-xTB          :
          :  restarted?                       true          :
          :  GBSA solvation                  false          :
          :  PC potential                    false          :
          :  electronic temp.          300.0000000     K    :
          :  accuracy                    0.2000000          :
          :  -> integral cutoff          0.3198970E+02      :
          :  -> integral neglect         0.2000000E-08      :
          :  -> SCF convergence          0.2000000E-06 Eh   :
          :  -> wf. convergence          0.2000000E-04 e    :
          :  Broyden damping             0.4000000          :
          :  net charge                          0          :
          :  unpaired electrons                  1          :
          ...................................................

 iter      E             dE          RMSdq      gap      omega  full diag
   1    -20.5386554 -0.205387E+02  0.545E-02    3.72       0.0  T
   2    -20.5386554 -0.697994E-07  0.320E-02    3.72       1.0  T
   3    -20.5386552  0.196171E-06  0.376E-03    3.72       6.5  T
   4    -20.5386555 -0.236344E-06  0.713E-04    3.72      34.0  T
   5    -20.5386555 -0.369666E-08  0.356E-04    3.72      68.2  T
   6    -20.5386555 -0.490424E-09  0.756E-05    3.72     320.8  T
   7    -20.5386555 -0.231353E-10  0.267E-05    3.72     907.3  T

   *** convergence criteria satisfied after 7 iterations ***

         #    Occupation            Energy/Eh            Energy/eV
      -------------------------------------------------------------
         1        2.0000           -0.6461815             -17.5835
       ...           ...                  ...                  ...
        13        2.0000           -0.4732165             -12.8769
        14        2.0000           -0.4588996             -12.4873
        15        2.0000           -0.4534769             -12.3397
        16        2.0000           -0.4460026             -12.1363
        17        2.0000           -0.4130070             -11.2385
        18        2.0000           -0.3951198             -10.7518
        19        1.0000           -0.3482661              -9.4768 (HOMO)
        20                         -0.2114349              -5.7534 (LUMO)
        21                          0.0810061               2.2043
        22                          0.1014824               2.7615
        23                          0.1359339               3.6989
        24                          0.1593775               4.3369
       ...                                ...                  ...
        35                          0.5916273              16.0990
      -------------------------------------------------------------
                  HL-Gap            0.1368312 Eh            3.7234 eV
             Fermi-level           -0.3257717 Eh           -8.8647 eV

 SCC (total)                   0 d,  0 h,  0 min,  0.018 sec
 SCC setup                      ...        0 min,  0.001 sec (  3.810%)
 Dispersion                     ...        0 min,  0.000 sec (  2.253%)
 classical contributions        ...        0 min,  0.000 sec (  0.959%)
 integral evaluation            ...        0 min,  0.001 sec (  3.872%)
 iterations                     ...        0 min,  0.013 sec ( 73.252%)
 molecular gradient             ...        0 min,  0.002 sec ( 12.763%)
 printout                       ...        0 min,  0.001 sec (  2.978%)

         :::::::::::::::::::::::::::::::::::::::::::::::::::::
         ::                     SUMMARY                     ::
         :::::::::::::::::::::::::::::::::::::::::::::::::::::
         :: total energy             -20.248958814097 Eh    ::
         :: gradient norm              0.077016020509 Eh/a0 ::
         :: HOMO-LUMO gap              3.723366269754 eV    ::
         ::.................................................::
         :: SCC energy               -20.538631009779 Eh    ::
         :: -> isotropic ES            0.047071978982 Eh    ::
         :: -> anisotropic ES         -0.001845510924 Eh    ::
         :: -> anisotropic XC          0.010314662986 Eh    ::
         :: -> dispersion             -0.008511371539 Eh    ::
         :: repulsion energy           0.289672195682 Eh    ::
         :: add. restraining           0.000000000000 Eh    ::
         :: total charge              -0.000000000000 e     ::
         :::::::::::::::::::::::::::::::::::::::::::::::::::::


Property printout bound to 'properties.out'

           -------------------------------------------------
          | TOTAL ENERGY              -20.248958814097 Eh   |
          | GRADIENT NORM               0.077016020509 Eh/α |
          | HOMO-LUMO GAP               3.723366269754 eV   |
           -------------------------------------------------

------------------------------------------------------------------------
 * finished run on 2026/09/19 at 14:44:22.851     
------------------------------------------------------------------------
 total:
 * wall-time:     0 d,  0 h,  0 min,  0.048 sec
 *  cpu-time:     0 d,  0 h,  0 min,  0.321 sec
 * ratio c/w:     6.656 speedup
 SCF:
 * wall-time:     0 d,  0 h,  0 min,  0.018 sec
 *  cpu-time:     0 d,  0 h,  0 min,  0.122 sec
 * ratio c/w:     6.894 speedup


-------------------------   --------------------
FINAL SINGLE POINT ENERGY       -20.248958814100
-------------------------   --------------------


-------------
DIPOLE MOMENT
-------------
                                X             Y             Z
Total Dipole Moment    :      0.97900       0.97900       0.89500
                        -----------------------------------------
Magnitude (a.u.)       :      1.64861
Magnitude (Debye)      :      4.19043


------------------
CARTESIAN GRADIENT
------------------

   1   C   :    0.000147240   -0.000060505   -0.000045661
   2   C   :   -0.000017276   -0.000088880    0.000117451
   3   C   :   -0.000004317    0.000226510   -0.000095979
   4   C   :   -0.010533807   -0.026048225   -0.045753462
   5   C   :   -0.000165828    0.000275964    0.000058166
   6   H   :   -0.000027869    0.000010881    0.000002967
   7   H   :   -0.000054111    0.000006781    0.000004760
   8   H   :   -0.000040516    0.000001200    0.000023288
   9   H   :    0.000090569    0.000010373   -0.000041836
  10   H   :   -0.000118108   -0.000034817    0.000010034
  11   H   :    0.006394963    0.023717960    0.049101609
  12   H   :   -0.000023881    0.000310896    0.000205565
  13   H   :    0.000047658   -0.000066835   -0.000022343
  14   H   :    0.000024344   -0.000010834   -0.000027545
  15   H   :    0.000056000   -0.000020181   -0.000013824
  16   O   :    0.004248895    0.001789693   -0.003543154
  17   H   :   -0.000023953   -0.000019981    0.000019963

Difference to translation invariance:
           :   -0.0000000000    0.0000000000   -0.0000000000

Difference to rotation invariance:
           :    0.0000000417   -0.0000000707    0.0000000265

Norm of the Cartesian gradient     ...    0.0770160205
RMS gradient                       ...    0.0107844000
MAX gradient                       ...    0.0491016094
------------------------------------------------------------------------------
                         ORCA GEOMETRY RELAXATION STEP
------------------------------------------------------------------------------

Reading the OPT-File                    .... done
Getting information on internals        .... done
Copying old internal coords+grads       .... done
Making the new internal coordinates     .... (2022 redundants) done
Validating the new internal coordinates .... (2022 redundants) done
Calculating the B-matrix                .... done
Calculating the G,G- and P matrices     .... done
Transforming gradient to internals      .... done
Projecting the internal gradient        .... done
Number of atoms                         ....  17
Number of internal coordinates          ....  75
Current Energy                          ....   -20.248958814 Eh
Current gradient norm                   ....     0.077016021 Eh/bohr
Maximum allowed component of the step   ....  0.300
Current trust radius                    ....  0.700
Updating the Hessian (BFGS)             .... done
Forming the augmented Hessian           .... done
Diagonalizing the augmented Hessian     .... done
Last element of RFO vector              ....  0.999899203
Lowest eigenvalues of augmented Hessian:
 -0.000005709  0.004142024  0.010003780  0.010780097  0.028583527
Length of the computed step             ....  0.014199434
The final length of the internal step   ....  0.014199434
Converting the step to Cartesian space:
 Initial RMS(Int)=    0.0016396094
Transforming coordinates:
 Iter   0:  RMS(Cart)=    0.0078453160 RMS(Int)=    0.0016389729
 Iter   5:  RMS(Cart)=    0.0000001011 RMS(Int)=    0.0000000464
Imposing constraints:
 Iter   0:  RMS(Cart)=    0.0000000000 RMS(Int)=    0.0000000000
CONVERGED
done
Storing new coordinates                 .... done
The predicted energy change is          ....    -0.000002855
Previously predicted energy change      ....    -0.000004413
Actually observed energy change         ....    -0.000006385
Ratio of predicted to observed change   ....     1.447096075
New trust radius                        ....     0.700000000

                                .--------------------.
          ----------------------|Geometry convergence|-------------------------
          Item                value                   Tolerance       Converged
          ---------------------------------------------------------------------
          Energy change      -0.0000063854            0.0000050000      NO
          RMS gradient        0.0000747461            0.0001000000      YES
          MAX gradient        0.0002759217            0.0003000000      YES
          RMS step            0.0016396094            0.0020000000      YES
          MAX step            0.0075697303            0.0040000000      NO
          -------------------------------------------------------------------------
          ........................................................
          Max(Bonds)      0.0005      Max(Angles)    0.30
          Max(Dihed)        0.43      Max(Improp)    0.00
          ---------------------------------------------------------------------

The optimization has not yet converged - more geometry cycles are needed


    ---------------------------------------------------------------------------
                         Redundant Internal Coordinates
                            (Angstroem and degrees)

        Definition                    Value    dE/dq     Step     New-Value
    ----------------------------------------------------------------------------
     1. B(C   1,C   0)                1.4870  0.000001 -0.0000    1.4870   
     2. B(C   2,C   1)                1.3362  0.000137 -0.0001    1.3361   
     3. B(C   3,C   2)                1.4648  0.000025 -0.0000    1.4648   
     4. B(C   4,C   3)                1.5185  0.000125 -0.0005    1.5180   
     5. B(H   5,C   0)                1.0903 -0.000023  0.0001    1.0903   
     6. B(H   6,C   0)                1.0871  0.000018 -0.0001    1.0871   
     7. B(H   7,C   0)                1.0902 -0.000004  0.0000    1.0902   
     8. B(H   8,C   1)                1.0825 -0.000011  0.0000    1.0825   
     9. B(H   9,C   2)                1.0830 -0.000015  0.0000    1.0830   
    10. B(H  10,C   3)                1.0868 -0.033088  0.0000    1.0868   
    11. B(H  11,C   3)                1.0932 -0.000085  0.0003    1.0935   
    12. B(H  12,C   4)                1.0868 -0.000001  0.0000    1.0868   
    13. B(H  13,C   4)                1.0903 -0.000025  0.0001    1.0904   
    14. B(H  14,C   4)                1.0874 -0.000016  0.0000    1.0874   
    15. B(O  15,H  10)                1.4000  0.008351  0.0000    1.4000   
    16. B(H  16,O  15)                0.9568 -0.000036  0.0000    0.9568   
    17. A(H   5,C   0,H   7)          107.21  0.000050   -0.03    107.19   
    18. A(C   1,C   0,H   7)          110.26 -0.000042    0.01    110.28   
    19. A(H   6,C   0,H   7)          108.99  0.000025    0.00    108.99   
    20. A(C   1,C   0,H   6)          111.28 -0.000077    0.03    111.31   
    21. A(H   5,C   0,H   6)          108.96  0.000029   -0.01    108.96   
    22. A(C   1,C   0,H   5)          110.03  0.000020   -0.01    110.02   
    23. A(C   0,C   1,C   2)          124.60 -0.000041    0.00    124.60   
    24. A(C   2,C   1,H   8)          119.65  0.000117   -0.03    119.62   
    25. A(C   0,C   1,H   8)          115.75 -0.000075    0.03    115.78   
    26. A(C   1,C   2,C   3)          124.45  0.000030   -0.02    124.43   
    27. A(C   1,C   2,H   9)          119.39  0.000112   -0.02    119.36   
    28. A(C   3,C   2,H   9)          116.14 -0.000140    0.04    116.18   
    29. A(C   2,C   3,C   4)          114.66 -0.000124    0.11    114.77   
    30. A(C   2,C   3,H  10)          109.71 -0.000049    0.04    109.75   
    31. A(C   4,C   3,H  10)          104.09 -0.000039    0.10    104.19   
    32. A(C   2,C   3,H  11)          111.78  0.000044   -0.01    111.77   
    33. A(C   4,C   3,H  11)          111.99 -0.000072    0.03    112.02   
    34. A(H  10,C   3,H  11)          103.71  0.000276   -0.30    103.41   
    35. A(C   3,C   4,H  12)          110.63 -0.000105    0.04    110.67   
    36. A(C   3,C   4,H  13)          110.14 -0.000001    0.00    110.14   
    37. A(H  12,C   4,H  13)          108.41  0.000061   -0.03    108.38   
    38. A(C   3,C   4,H  14)          110.66 -0.000060    0.02    110.68   
    39. A(H  12,C   4,H  14)          108.58  0.000072   -0.03    108.55   
    40. A(H  13,C   4,H  14)          108.34  0.000039   -0.01    108.34   
    41. A(C   3,H  10,O  15)          160.20 -0.005552   -0.00    160.20   
    42. L(H  10,O  15,H  16,C   3, 1) 105.02 -0.000002    0.02    105.04   
    43. L(H  10,O  15,H  16,C   3, 2) 179.58 -0.000008    0.00    179.58   
    44. D(C   2,C   1,C   0,H   5)   -120.83  0.000020   -0.03   -120.87   
    45. D(C   2,C   1,C   0,H   6)      0.04  0.000019   -0.03      0.01   
    46. D(H   8,C   1,C   0,H   5)     59.42 -0.000007    0.06     59.48   
    47. D(H   8,C   1,C   0,H   6)   -179.71 -0.000008    0.06   -179.64   
    48. D(C   2,C   1,C   0,H   7)    121.11 -0.000028   -0.01    121.10   
    49. D(C   3,C   2,C   1,C   0)    179.33  0.000015   -0.03    179.30   
    50. D(C   3,C   2,C   1,H   8)     -0.93  0.000043   -0.12     -1.06   
    51. D(H   9,C   2,C   1,C   0)      1.19 -0.000025    0.05      1.24   
    52. D(H   9,C   2,C   1,H   8)   -179.07  0.000003   -0.05   -179.12   
    53. D(C   4,C   3,C   2,C   1)    149.51  0.000022    0.21    149.72   
    54. D(C   4,C   3,C   2,H   9)    -32.31  0.000066    0.14    -32.17   
    55. D(H  10,C   3,C   2,C   1)    -93.81 -0.000140    0.43    -93.38   
    56. D(H  10,C   3,C   2,H   9)     84.37 -0.000096    0.36     84.73   
    57. D(H  11,C   3,C   2,C   1)     20.66  0.000193    0.09     20.75   
    58. D(H  12,C   4,C   3,C   2)    174.86 -0.000019    0.02    174.88   
    59. D(H  12,C   4,C   3,H  10)     55.01  0.000136   -0.15     54.85   
    60. D(H  12,C   4,C   3,H  11)    -56.40 -0.000132    0.12    -56.27   
    61. D(H  13,C   4,C   3,C   2)    -65.30 -0.000011    0.01    -65.29   
    62. D(H  13,C   4,C   3,H  10)    174.84  0.000145   -0.17    174.68   
    63. D(H  13,C   4,C   3,H  11)     63.44 -0.000124    0.11     63.55   
    64. D(O  15,H  10,C   3,C   2)      3.67  0.000074   -0.07      3.61   
    65. D(O  15,H  10,C   3,C   4)    126.83 -0.000123    0.15    126.97   
    66. D(O  15,H  10,C   3,H  11)   -115.88 -0.000105    0.09   -115.78   
    67. C_Y(C   3)                     -0.84 -0.008977    0.00     -0.84 C 
    68. C_X(C   3)                     -1.15 -0.002790    0.00     -1.15 C 
    69. C_Z(C   3)                     -0.08 -0.017878    0.00     -0.08 C 
    70. C_Z(H  10)                     -0.95  0.013154   -0.00     -0.95 C 
    71. C_X(H  10)                     -1.47  0.000102    0.00     -1.47 C 
    72. C_Y(H  10)                     -1.41  0.005259   -0.00     -1.41 C 
    73. C_Z(O  15)                     -2.24  0.004724   -0.00     -2.24 C 
    74. C_Y(O  15)                     -1.93  0.003719   -0.00     -1.93 C 
    75. C_X(O  15)                     -1.50  0.002687    0.00     -1.50 C 
    ----------------------------------------------------------------------------

Geometry step timings:
Preparation and reading OPT file:      0.000 s ( 0.156 %)
Internal coordinates            :      0.000 s ( 0.234 %)
B/P matrices and projection     :      0.002 s (13.557 %)
Hessian update/contruction      :      0.006 s (50.558 %)
Making the step                 :      0.001 s ( 5.084 %)
Converting the step to Cartesian:      0.000 s ( 1.117 %)
Storing new data                :      0.000 s ( 0.180 %)
Checking convergence            :      0.000 s ( 0.281 %)
Final printing                  :      0.004 s (28.809 %)
Total time                      :      0.013 s

Time for energy+gradient        :      0.062 s
Time for complete geometry iter :      0.090 s

         *************************************************************
         *                GEOMETRY OPTIMIZATION CYCLE  11            *
         *************************************************************
---------------------------------
CARTESIAN COORDINATES (ANGSTROEM)
---------------------------------
  C     2.497251    0.344984   -0.589650
  C     1.293293   -0.450775   -0.231185
  C     0.033549   -0.047256   -0.419135
  C    -1.149753   -0.840407   -0.078009
  C    -2.369976   -0.026413    0.312922
  H     3.110661   -0.206603   -1.302624
  H     2.222625    1.301917   -1.026217
  H     3.110533    0.521318    0.294231
  H     1.484182   -1.417784    0.216354
  H    -0.152716    0.914781   -0.880409
  H    -1.474726   -1.407278   -0.946451
  H    -0.920211   -1.614827    0.659066
  H    -3.230113   -0.673213    0.464381
  H    -2.179041    0.514634    1.240177
  H    -2.613251    0.697143   -0.461506
  O    -1.495615   -1.933353   -2.243682
  H    -0.718171   -1.573713   -2.670033

----------------------------
CARTESIAN COORDINATES (A.U.)
----------------------------
  NO LB    ZA    FRAG    MASS        X           Y           Z
   0 C   6.0000    0    12.011    4.719121    0.651926   -1.114278
   1 C   6.0000    0    12.011    2.443970   -0.851841   -0.436877
   2 C   6.0000    0    12.011    0.063398   -0.089302   -0.792050
   3 C   6.0000    0    12.011   -2.172718   -1.588138   -0.147416
   4 C   6.0000    0    12.011   -4.478606   -0.049913    0.591336
   5 H   1.0000    0     1.008    5.878298   -0.390423   -2.461602
   6 H   1.0000    0     1.008    4.200152    2.460266   -1.939269
   7 H   1.0000    0     1.008    5.878055    0.985148    0.556016
   8 H   1.0000    0     1.008    2.804698   -2.679224    0.408851
   9 H   1.0000    0     1.008   -0.288591    1.728685   -1.663733
  10 H   1.0000    0     1.008   -2.786828   -2.659370   -1.788533
  11 H   1.0000    0     1.008   -1.738947   -3.051580    1.245455
  12 H   1.0000    0     1.008   -6.104029   -1.272189    0.877553
  13 H   1.0000    0     1.008   -4.117791    0.972517    2.343595
  14 H   1.0000    0     1.008   -4.938329    1.317410   -0.872121
  15 O   8.0000    0    15.999   -2.826303   -3.653509   -4.239944
  16 H   1.0000    0     1.008   -1.357147   -2.973888   -5.045631

      -----------------------------------------------------------      
     |                   =====================                   |     
     |                           x T B                           |     
     |                   =====================                   |     
     |                         S. Grimme                         |     
     |          Mulliken Center for Theoretical Chemistry        |     
     |                    University of Bonn                     |     
      -----------------------------------------------------------      

   * xtb version 6.7.1 (edcfbbe) compiled by 'albert@albert-system' on 2024-07-22

   xtb is free software: you can redistribute it and/or modify it under
   the terms of the GNU Lesser General Public License as published by
   the Free Software Foundation, either version 3 of the License, or
   (at your option) any later version.
   
   xtb is distributed in the hope that it will be useful,
   but WITHOUT ANY WARRANTY; without even the implied warranty of
   MERCHANTABILITY or FITNESS FOR A PARTICULAR PURPOSE.  See the
   GNU Lesser General Public License for more details.
   
   Cite this work as:
   * C. Bannwarth, E. Caldeweyher, S. Ehlert, A. Hansen, P. Pracht,
     J. Seibert, S. Spicher, S. Grimme, WIREs Comput. Mol. Sci., 2020, 11,
     e01493. DOI: 10.1002/wcms.1493
   
   for GFN2-xTB:
   * C. Bannwarth, S. Ehlert and S. Grimme., J. Chem. Theory Comput., 2019,
     15, 1652-1671. DOI: 10.1021/acs.jctc.8b01176
   for GFN1-xTB:
   * S. Grimme, C. Bannwarth, P. Shushkov, J. Chem. Theory Comput., 2017,
     13, 1989-2009. DOI: 10.1021/acs.jctc.7b00118
   for GFN0-xTB:
   * P. Pracht, E. Caldeweyher, S. Ehlert, S. Grimme, ChemRxiv, 2019, preprint.
     DOI: 10.26434/chemrxiv.8326202.v1
   for GFN-FF:
   * S. Spicher and S. Grimme, Angew. Chem. Int. Ed., 2020, 59, 15665-15673.
     DOI: 10.1002/anie.202004239
   
   for ALPB and GBSA implicit solvation:
   * S. Ehlert, M. Stahn, S. Spicher, S. Grimme, J. Chem. Theory Comput.,
     2021, 17, 4250-4261. DOI: 10.1021/acs.jctc.1c00471
   
   for ddCOSMO and CPCM-X implicit solvation:
   * M. Stahn, S. Ehlert, S. Grimme, J. Phys. Chem. A,
     2023, XX, XXXX-XXXX. DOI: 10.1021/acs.jpca.3c04382
   
   for DFT-D4:
   * E. Caldeweyher, C. Bannwarth and S. Grimme, J. Chem. Phys., 2017,
     147, 034112. DOI: 10.1063/1.4993215
   * E. Caldeweyher, S. Ehlert, A. Hansen, H. Neugebauer, S. Spicher,
     C. Bannwarth and S. Grimme, J. Chem. Phys., 2019, 150, 154122.
     DOI: 10.1063/1.5090222
   * E. Caldeweyher, J.-M. Mewes, S. Ehlert and S. Grimme, Phys. Chem. Chem. Phys.
     2020, 22, 8499-8512. DOI: 10.1039/D0CP00502A
   
   for sTDA-xTB:
   * S. Grimme and C. Bannwarth, J. Chem. Phys., 2016, 145, 054103.
     DOI: 10.1063/1.4959605
   
   in the mass-spec context:
   * V. Asgeirsson, C. Bauer and S. Grimme, Chem. Sci., 2017, 8, 4879.
     DOI: 10.1039/c7sc00601b
   * J. Koopman and S. Grimme, ACS Omega 2019, 4, 12, 15120-15133.
     DOI: 10.1021/acsomega.9b02011
   
   for metadynamics refer to:
   * S. Grimme, J. Chem. Theory Comput., 2019, 155, 2847-2862
     DOI: 10.1021/acs.jctc.9b00143
   
   for SPH calculations refer to:
   * S. Spicher and S. Grimme, J. Chem. Theory Comput., 2021, 17, 1701-1714
     DOI: 10.1021/acs.jctc.0c01306
   
   for ONIOM refer to:
   * C. Plett, A. Katbashev, S. Ehlert, S. Grimme, M. Bursch,
     Phys. Chem. Chem. Phys., 2023, 25, 17860-17868. DOI: 10.1039/D3CP02178E
   
   for DIPRO refer to:
   * J. Kohn, N. Gildemeister, S. Grimme, D. Fazzi, A. Hansen,
     J. Chem. Phys., 2023, just accepted.
   
   for PTB refer to:
   * S. Grimme, M. Mueller, A. Hansen, J. Chem. Phys., 2023, 158, 124111.
     DOI: 10.1063/5.0137838
   
   with help from (in alphabetical order)
   P. Atkinson, C. Bannwarth, F. Bohle, G. Brandenburg, E. Caldeweyher
   M. Checinski, S. Dohm, S. Ehlert, S. Ehrlich, I. Gerasimov, C. Hölzer
   A. Katbashev, J. Kohn, J. Koopman, C. Lavigne, S. Lehtola, F. März, M. Müller,
   F. Musil, H. Neugebauer, J. Pisarek, C. Plett, P. Pracht, F. Pultar,
   J. Seibert, P. Shushkov, S. Spicher, M. Stahn, M. Steiner, T. Strunk,
   J. Stückrath, T. Rose, and J. Unsleber
   
 * started run on 2026/09/19 at 14:44:22.892     
   ID    Z sym.   atoms
    1    6 C      1-5
    2    1 H      6-15, 17
    3    8 O      16

           -------------------------------------------------
          |                Calculation Setup                |
           -------------------------------------------------

          program call               : /apps/eb/ORCA/6.1.1-gompi-2023b-avx2/bin/otool_xtb opt_XTB.xyz --grad -c 0 -u 1 -P 8 --namespace opt --input opt_XTB.input.tmp --acc 0.200000
          hostname                   : a1-8
          calculation namespace      : opt
          coordinate file            : opt_XTB.xyz
          omp threads                :                     8


molecular fragmentation (1/2 indicates fragments):
11111111111111122
# atoms in fragment 1/2:    15     2
 fragment masses (1/2) :       70.13       17.01
CMA distance (Bohr)    :   5.815
constraining FC (au)   :  0.0500

           -------------------------------------------------
          |                 G F N 2 - x T B                 |
           -------------------------------------------------

        Reference                      10.1021/acs.jctc.8b01176
      * Hamiltonian:
        H0-scaling (s, p, d)           1.850000    2.230000    2.230000
        zeta-weighting                 0.500000
      * Dispersion:
        s8                             2.700000
        a1                             0.520000
        a2                             5.000000
        s9                             5.000000
      * Repulsion:
        kExp                           1.500000    1.000000
        rExp                           1.000000
      * Coulomb:
        alpha                          2.000000
        third order                    shell-resolved
        anisotropic                    true
        a3                             3.000000
        a5                             4.000000
        cn-shift                       1.200000
        cn-exp                         4.000000
        max-rad                        5.000000

q/qsh data taken from xtbrestart
CAMM data taken from xtbrestart

          ...................................................
          :                      SETUP                      :
          :.................................................:
          :  # basis functions                  35          :
          :  # atomic orbitals                  35          :
          :  # shells                           23          :
          :  # electrons                        37          :
          :  max. iterations                   250          :
          :  Hamiltonian                  GFN2-xTB          :
          :  restarted?                       true          :
          :  GBSA solvation                  false          :
          :  PC potential                    false          :
          :  electronic temp.          300.0000000     K    :
          :  accuracy                    0.2000000          :
          :  -> integral cutoff          0.3198970E+02      :
          :  -> integral neglect         0.2000000E-08      :
          :  -> SCF convergence          0.2000000E-06 Eh   :
          :  -> wf. convergence          0.2000000E-04 e    :
          :  Broyden damping             0.4000000          :
          :  net charge                          0          :
          :  unpaired electrons                  1          :
          ...................................................

 iter      E             dE          RMSdq      gap      omega  full diag
   1    -20.5387087 -0.205387E+02  0.284E-02    3.72       0.0  T
   2    -20.5387088 -0.407601E-07  0.166E-02    3.72       1.5  T
   3    -20.5387086  0.129028E-06  0.303E-03    3.72       8.0  T
   4    -20.5387088 -0.148143E-06  0.585E-04    3.72      41.5  T
   5    -20.5387088 -0.396615E-08  0.233E-04    3.72     104.2  T
   6    -20.5387088 -0.194053E-09  0.656E-05    3.72     369.8  T
   7    -20.5387088 -0.194547E-10  0.210E-05    3.72    1152.9  T

   *** convergence criteria satisfied after 7 iterations ***

         #    Occupation            Energy/Eh            Energy/eV
      -------------------------------------------------------------
         1        2.0000           -0.6461930             -17.5838
       ...           ...                  ...                  ...
        13        2.0000           -0.4732260             -12.8771
        14        2.0000           -0.4588550             -12.4861
        15        2.0000           -0.4535076             -12.3406
        16        2.0000           -0.4460017             -12.1363
        17        2.0000           -0.4130090             -11.2385
        18        2.0000           -0.3950707             -10.7504
        19        1.0000           -0.3481951              -9.4749 (HOMO)
        20                         -0.2113786              -5.7519 (LUMO)
        21                          0.0809562               2.2029
        22                          0.1013688               2.7584
        23                          0.1363036               3.7090
        24                          0.1592661               4.3339
       ...                                ...                  ...
        35                          0.5917924              16.1035
      -------------------------------------------------------------
                  HL-Gap            0.1368164 Eh            3.7230 eV
             Fermi-level           -0.3257099 Eh           -8.8630 eV

 SCC (total)                   0 d,  0 h,  0 min,  0.007 sec
 SCC setup                      ...        0 min,  0.000 sec (  2.562%)
 Dispersion                     ...        0 min,  0.000 sec (  1.307%)
 classical contributions        ...        0 min,  0.000 sec (  0.291%)
 integral evaluation            ...        0 min,  0.000 sec (  6.023%)
 iterations                     ...        0 min,  0.005 sec ( 73.707%)
 molecular gradient             ...        0 min,  0.001 sec ( 13.377%)
 printout                       ...        0 min,  0.000 sec (  2.441%)

         :::::::::::::::::::::::::::::::::::::::::::::::::::::
         ::                     SUMMARY                     ::
         :::::::::::::::::::::::::::::::::::::::::::::::::::::
         :: total energy             -20.248962191060 Eh    ::
         :: gradient norm              0.076990011680 Eh/a0 ::
         :: HOMO-LUMO gap              3.722964648482 eV    ::
         ::.................................................::
         :: SCC energy               -20.538684373042 Eh    ::
         :: -> isotropic ES            0.047099570949 Eh    ::
         :: -> anisotropic ES         -0.001846626551 Eh    ::
         :: -> anisotropic XC          0.010308160894 Eh    ::
         :: -> dispersion             -0.008511397110 Eh    ::
         :: repulsion energy           0.289722181981 Eh    ::
         :: add. restraining           0.000000000000 Eh    ::
         :: total charge               0.000000000000 e     ::
         :::::::::::::::::::::::::::::::::::::::::::::::::::::


Property printout bound to 'properties.out'

           -------------------------------------------------
          | TOTAL ENERGY              -20.248962191060 Eh   |
          | GRADIENT NORM               0.076990011680 Eh/α |
          | HOMO-LUMO GAP               3.722964648482 eV   |
           -------------------------------------------------

------------------------------------------------------------------------
 * finished run on 2026/09/19 at 14:44:22.918     
------------------------------------------------------------------------
 total:
 * wall-time:     0 d,  0 h,  0 min,  0.025 sec
 *  cpu-time:     0 d,  0 h,  0 min,  0.175 sec
 * ratio c/w:     6.875 speedup
 SCF:
 * wall-time:     0 d,  0 h,  0 min,  0.007 sec
 *  cpu-time:     0 d,  0 h,  0 min,  0.055 sec
 * ratio c/w:     7.887 speedup


-------------------------   --------------------
FINAL SINGLE POINT ENERGY       -20.248962191060
-------------------------   --------------------


-------------
DIPOLE MOMENT
-------------
                                X             Y             Z
Total Dipole Moment    :      0.97900       0.97700       0.89500
                        -----------------------------------------
Magnitude (a.u.)       :      1.64742
Magnitude (Debye)      :      4.18741


------------------
CARTESIAN GRADIENT
------------------

   1   C   :    0.000047960    0.000034496   -0.000020357
   2   C   :   -0.000154147   -0.000093325   -0.000046658
   3   C   :    0.000246458    0.000116318    0.000011747
   4   C   :   -0.010766718   -0.025455733   -0.045822042
   5   C   :   -0.000032591    0.000071155    0.000021217
   6   H   :   -0.000011914    0.000000646    0.000008821
   7   H   :   -0.000008317   -0.000006888    0.000006861
   8   H   :   -0.000009419   -0.000003162    0.000002610
   9   H   :    0.000024068    0.000023914    0.000010568
  10   H   :   -0.000045639   -0.000015269   -0.000000695
  11   H   :    0.006487435    0.023526231    0.049339769
  12   H   :   -0.000041085    0.000099329    0.000058509
  13   H   :    0.000006118   -0.000005972   -0.000004750
  14   H   :    0.000010204   -0.000019458    0.000001389
  15   H   :    0.000009996   -0.000025480   -0.000015709
  16   O   :    0.004241606    0.001776446   -0.003551752
  17   H   :   -0.000004016   -0.000023246    0.000000472

Difference to translation invariance:
           :   -0.0000000000   -0.0000000000   -0.0000000000

Difference to rotation invariance:
           :    0.0000000468   -0.0000000766    0.0000000248

Norm of the Cartesian gradient     ...    0.0769900117
RMS gradient                       ...    0.0107807580
MAX gradient                       ...    0.0493397694
------------------------------------------------------------------------------
                         ORCA GEOMETRY RELAXATION STEP
------------------------------------------------------------------------------

Reading the OPT-File                    .... done
Getting information on internals        .... done
Copying old internal coords+grads       .... done
Making the new internal coordinates     .... (2022 redundants) done
Validating the new internal coordinates .... (2022 redundants) done
Calculating the B-matrix                .... done
Calculating the G,G- and P matrices     .... done
Transforming gradient to internals      .... done
Projecting the internal gradient        .... done
Number of atoms                         ....  17
Number of internal coordinates          ....  75
Current Energy                          ....   -20.248962191 Eh
Current gradient norm                   ....     0.076990012 Eh/bohr
Maximum allowed component of the step   ....  0.300
Current trust radius                    ....  0.700
Updating the Hessian (BFGS)             .... done
Forming the augmented Hessian           .... done
Diagonalizing the augmented Hessian     .... done
Last element of RFO vector              ....  0.999987713
Lowest eigenvalues of augmented Hessian:
 -0.000000693  0.004505115  0.010009771  0.010780155  0.028724221
Length of the computed step             ....  0.004957186
The final length of the internal step   ....  0.004957186
Converting the step to Cartesian space:
 Initial RMS(Int)=    0.0005724066
Transforming coordinates:
 Iter   0:  RMS(Cart)=    0.0025646049 RMS(Int)=    0.0005723569
 Iter   5:  RMS(Cart)=    0.0000003143 RMS(Int)=    0.0000001442
Imposing constraints:
 Iter   0:  RMS(Cart)=    0.0000000000 RMS(Int)=    0.0000000000
CONVERGED
done
Storing new coordinates                 .... done
The predicted energy change is          ....    -0.000000347
Previously predicted energy change      ....    -0.000002855
Actually observed energy change         ....    -0.000003377
Ratio of predicted to observed change   ....     1.182729907
New trust radius                        ....     0.700000000

                                .--------------------.
          ----------------------|Geometry convergence|-------------------------
          Item                value                   Tolerance       Converged
          ---------------------------------------------------------------------
          Energy change      -0.0000033770            0.0000050000      YES
          RMS gradient        0.0000297447            0.0001000000      YES
          MAX gradient        0.0001089668            0.0003000000      YES
          RMS step            0.0005724066            0.0020000000      YES
          MAX step            0.0028090739            0.0040000000      YES
          -------------------------------------------------------------------------
          ........................................................
          Max(Bonds)      0.0002      Max(Angles)    0.08
          Max(Dihed)        0.16      Max(Improp)    0.00
          ---------------------------------------------------------------------

                    ***********************HURRAY********************
                    ***        THE OPTIMIZATION HAS CONVERGED     ***
                    *************************************************


    ---------------------------------------------------------------------------
                         Redundant Internal Coordinates

                          --- Optimized Parameters ---  
                            (Angstroem and degrees)

        Definition                    OldVal   dE/dq     Step     FinalVal
    ----------------------------------------------------------------------------
     1. B(C   1,C   0)                1.4870  0.000029 -0.0001    1.4870   
     2. B(C   2,C   1)                1.3361 -0.000097  0.0000    1.3361   
     3. B(C   3,C   2)                1.4648  0.000109 -0.0002    1.4646   
     4. B(C   4,C   3)                1.5180  0.000016 -0.0001    1.5179   
     5. B(H   5,C   0)                1.0903 -0.000013  0.0000    1.0904   
     6. B(H   6,C   0)                1.0871 -0.000007 -0.0000    1.0871   
     7. B(H   7,C   0)                1.0902 -0.000004  0.0000    1.0902   
     8. B(H   8,C   1)                1.0825 -0.000013  0.0000    1.0825   
     9. B(H   9,C   2)                1.0830 -0.000005  0.0000    1.0831   
    10. B(H  10,C   3)                1.0868 -0.033148  0.0000    1.0868   
    11. B(H  11,C   3)                1.0935 -0.000040  0.0001    1.0936   
    12. B(H  12,C   4)                1.0868 -0.000002  0.0000    1.0868   
    13. B(H  13,C   4)                1.0904 -0.000007  0.0000    1.0904   
    14. B(H  14,C   4)                1.0874 -0.000008  0.0000    1.0874   
    15. B(O  15,H  10)                1.4000  0.008382 -0.0000    1.4000   
    16. B(H  16,O  15)                0.9568 -0.000012  0.0000    0.9568   
    17. A(H   5,C   0,H   7)          107.19  0.000008   -0.01    107.18   
    18. A(C   1,C   0,H   7)          110.28 -0.000010    0.01    110.28   
    19. A(H   6,C   0,H   7)          108.99  0.000009   -0.00    108.98   
    20. A(C   1,C   0,H   6)          111.31 -0.000011    0.01    111.31   
    21. A(H   5,C   0,H   6)          108.96  0.000011   -0.00    108.95   
    22. A(C   1,C   0,H   5)          110.02 -0.000006   -0.00    110.02   
    23. A(C   0,C   1,C   2)          124.60 -0.000037    0.01    124.61   
    24. A(C   2,C   1,H   8)          119.62  0.000046   -0.01    119.60   
    25. A(C   0,C   1,H   8)          115.78 -0.000009    0.01    115.79   
    26. A(C   1,C   2,C   3)          124.43 -0.000015    0.00    124.43   
    27. A(C   1,C   2,H   9)          119.36  0.000056   -0.02    119.35   
    28. A(C   3,C   2,H   9)          116.18 -0.000041    0.02    116.20   
    29. A(C   2,C   3,C   4)          114.77  0.000007    0.03    114.80   
    30. A(C   2,C   3,H  10)          109.75 -0.000055    0.03    109.78   
    31. A(C   4,C   3,H  10)          104.19  0.000008    0.01    104.20   
    32. A(C   2,C   3,H  11)          111.77  0.000015   -0.01    111.76   
    33. A(C   4,C   3,H  11)          112.02 -0.000046    0.01    112.03   
    34. A(H  10,C   3,H  11)          103.41  0.000077   -0.08    103.33   
    35. A(C   3,C   4,H  12)          110.67 -0.000014    0.01    110.68   
    36. A(C   3,C   4,H  13)          110.14 -0.000007    0.00    110.14   
    37. A(H  12,C   4,H  13)          108.38  0.000011   -0.01    108.38   
    38. A(C   3,C   4,H  14)          110.68 -0.000029    0.01    110.70   
    39. A(H  12,C   4,H  14)          108.55 -0.000001   -0.00    108.55   
    40. A(H  13,C   4,H  14)          108.34  0.000043   -0.01    108.33   
    41. A(C   3,H  10,O  15)          160.20 -0.005550    0.00    160.20   
    42. L(H  10,O  15,H  16,C   3, 1) 105.04  0.000022   -0.01    105.03   
    43. L(H  10,O  15,H  16,C   3, 2) 179.58 -0.000015    0.00    179.59   
    44. D(C   2,C   1,C   0,H   5)   -120.87 -0.000006    0.01   -120.86   
    45. D(C   2,C   1,C   0,H   6)      0.01 -0.000004    0.00      0.01   
    46. D(H   8,C   1,C   0,H   5)     59.48  0.000007   -0.01     59.47   
    47. D(H   8,C   1,C   0,H   6)   -179.64  0.000009   -0.01   -179.65   
    48. D(C   2,C   1,C   0,H   7)    121.10 -0.000006    0.01    121.11   
    49. D(C   3,C   2,C   1,C   0)    179.30 -0.000000    0.01    179.31   
    50. D(C   3,C   2,C   1,H   8)     -1.06 -0.000014    0.02     -1.03   
    51. D(H   9,C   2,C   1,C   0)      1.24  0.000010   -0.03      1.21   
    52. D(H   9,C   2,C   1,H   8)   -179.12 -0.000004   -0.01   -179.13   
    53. D(C   4,C   3,C   2,C   1)    149.72  0.000016   -0.12    149.59   
    54. D(C   4,C   3,C   2,H   9)    -32.17  0.000009   -0.09    -32.26   
    55. D(H  10,C   3,C   2,C   1)    -93.38 -0.000008   -0.08    -93.46   
    56. D(H  10,C   3,C   2,H   9)     84.73 -0.000016   -0.04     84.69   
    57. D(H  11,C   3,C   2,C   1)     20.75  0.000062   -0.16     20.59   
    58. D(H  12,C   4,C   3,C   2)    174.88 -0.000013    0.01    174.89   
    59. D(H  12,C   4,C   3,H  10)     54.85  0.000046   -0.05     54.80   
    60. D(H  12,C   4,C   3,H  11)    -56.27 -0.000028    0.03    -56.24   
    61. D(H  13,C   4,C   3,C   2)    -65.29 -0.000014    0.00    -65.29   
    62. D(H  13,C   4,C   3,H  10)    174.68  0.000045   -0.05    174.62   
    63. D(H  13,C   4,C   3,H  11)     63.55 -0.000029    0.03     63.58   
    64. D(O  15,H  10,C   3,C   2)      3.61 -0.000027    0.00      3.61   
    65. D(O  15,H  10,C   3,C   4)    126.97 -0.000044    0.05    127.02   
    66. D(O  15,H  10,C   3,H  11)   -115.78 -0.000060    0.04   -115.74   
    67. C_Y(C   3)                     -0.84 -0.008993    0.00     -0.84 C 
    68. C_X(C   3)                     -1.15 -0.002798    0.00     -1.15 C 
    69. C_Z(C   3)                     -0.08 -0.017902    0.00     -0.08 C 
    70. C_Z(H  10)                     -0.95  0.013180   -0.00     -0.95 C 
    71. C_X(H  10)                     -1.47  0.000110   -0.00     -1.47 C 
    72. C_Y(H  10)                     -1.41  0.005275   -0.00     -1.41 C 
    73. C_Z(O  15)                     -2.24  0.004723   -0.00     -2.24 C 
    74. C_Y(O  15)                     -1.93  0.003718    0.00     -1.93 C 
    75. C_X(O  15)                     -1.50  0.002688    0.00     -1.50 C 
    ----------------------------------------------------------------------------

Geometry step timings:
Preparation and reading OPT file:      0.000 s ( 0.149 %)
Internal coordinates            :      0.000 s ( 0.227 %)
B/P matrices and projection     :      0.002 s (12.767 %)
Hessian update/contruction      :      0.007 s (51.428 %)
Making the step                 :      0.001 s ( 4.803 %)
Converting the step to Cartesian:      0.000 s ( 1.291 %)
Storing new data                :      0.000 s ( 0.180 %)
Checking convergence            :      0.000 s ( 0.321 %)
Final printing                  :      0.004 s (28.820 %)
Total time                      :      0.013 s
                 *******************************************************
                 *** FINAL ENERGY EVALUATION AT THE STATIONARY POINT ***
                 ***               (AFTER   11 CYCLES)               ***
                 *******************************************************
---------------------------------
CARTESIAN COORDINATES (ANGSTROEM)
---------------------------------
  C     2.497214    0.346114   -0.586298
  C     1.293172   -0.449857   -0.228811
  C     0.033407   -0.047065   -0.418421
  C    -1.149753   -0.840407   -0.078009
  C    -2.370166   -0.027381    0.313916
  H     3.111631   -0.205650   -1.298313
  H     2.222905    1.302760   -1.023689
  H     3.109552    0.523067    0.298123
  H     1.483767   -1.416671    0.219331
  H    -0.152504    0.914871   -0.880090
  H    -1.474726   -1.407278   -0.946451
  H    -0.919899   -1.616023    0.657868
  H    -3.230128   -0.674538    0.464862
  H    -2.179350    0.512782    1.241740
  H    -2.613920    0.697053   -0.459569
  O    -1.495615   -1.933353   -2.243682
  H    -0.718158   -1.573559   -2.669909

----------------------------
CARTESIAN COORDINATES (A.U.)
----------------------------
  NO LB    ZA    FRAG    MASS        X           Y           Z
   0 C   6.0000    0    12.011    4.719051    0.654061   -1.107942
   1 C   6.0000    0    12.011    2.443740   -0.850107   -0.432391
   2 C   6.0000    0    12.011    0.063130   -0.088940   -0.790702
   3 C   6.0000    0    12.011   -2.172718   -1.588138   -0.147416
   4 C   6.0000    0    12.011   -4.478965   -0.051743    0.593215
   5 H   1.0000    0     1.008    5.880130   -0.388622   -2.453456
   6 H   1.0000    0     1.008    4.200682    2.461860   -1.934492
   7 H   1.0000    0     1.008    5.876203    0.988453    0.563370
   8 H   1.0000    0     1.008    2.803914   -2.677121    0.414475
   9 H   1.0000    0     1.008   -0.288191    1.728856   -1.663128
  10 H   1.0000    0     1.008   -2.786828   -2.659370   -1.788533
  11 H   1.0000    0     1.008   -1.738357   -3.053842    1.243190
  12 H   1.0000    0     1.008   -6.104058   -1.274693    0.878463
  13 H   1.0000    0     1.008   -4.118375    0.969017    2.346549
  14 H   1.0000    0     1.008   -4.939593    1.317240   -0.868459
  15 O   8.0000    0    15.999   -2.826303   -3.653509   -4.239944
  16 H   1.0000    0     1.008   -1.357123   -2.973596   -5.045397

      -----------------------------------------------------------      
     |                   =====================                   |     
     |                           x T B                           |     
     |                   =====================                   |     
     |                         S. Grimme                         |     
     |          Mulliken Center for Theoretical Chemistry        |     
     |                    University of Bonn                     |     
      -----------------------------------------------------------      

   * xtb version 6.7.1 (edcfbbe) compiled by 'albert@albert-system' on 2024-07-22

   xtb is free software: you can redistribute it and/or modify it under
   the terms of the GNU Lesser General Public License as published by
   the Free Software Foundation, either version 3 of the License, or
   (at your option) any later version.
   
   xtb is distributed in the hope that it will be useful,
   but WITHOUT ANY WARRANTY; without even the implied warranty of
   MERCHANTABILITY or FITNESS FOR A PARTICULAR PURPOSE.  See the
   GNU Lesser General Public License for more details.
   
   Cite this work as:
   * C. Bannwarth, E. Caldeweyher, S. Ehlert, A. Hansen, P. Pracht,
     J. Seibert, S. Spicher, S. Grimme, WIREs Comput. Mol. Sci., 2020, 11,
     e01493. DOI: 10.1002/wcms.1493
   
   for GFN2-xTB:
   * C. Bannwarth, S. Ehlert and S. Grimme., J. Chem. Theory Comput., 2019,
     15, 1652-1671. DOI: 10.1021/acs.jctc.8b01176
   for GFN1-xTB:
   * S. Grimme, C. Bannwarth, P. Shushkov, J. Chem. Theory Comput., 2017,
     13, 1989-2009. DOI: 10.1021/acs.jctc.7b00118
   for GFN0-xTB:
   * P. Pracht, E. Caldeweyher, S. Ehlert, S. Grimme, ChemRxiv, 2019, preprint.
     DOI: 10.26434/chemrxiv.8326202.v1
   for GFN-FF:
   * S. Spicher and S. Grimme, Angew. Chem. Int. Ed., 2020, 59, 15665-15673.
     DOI: 10.1002/anie.202004239
   
   for ALPB and GBSA implicit solvation:
   * S. Ehlert, M. Stahn, S. Spicher, S. Grimme, J. Chem. Theory Comput.,
     2021, 17, 4250-4261. DOI: 10.1021/acs.jctc.1c00471
   
   for ddCOSMO and CPCM-X implicit solvation:
   * M. Stahn, S. Ehlert, S. Grimme, J. Phys. Chem. A,
     2023, XX, XXXX-XXXX. DOI: 10.1021/acs.jpca.3c04382
   
   for DFT-D4:
   * E. Caldeweyher, C. Bannwarth and S. Grimme, J. Chem. Phys., 2017,
     147, 034112. DOI: 10.1063/1.4993215
   * E. Caldeweyher, S. Ehlert, A. Hansen, H. Neugebauer, S. Spicher,
     C. Bannwarth and S. Grimme, J. Chem. Phys., 2019, 150, 154122.
     DOI: 10.1063/1.5090222
   * E. Caldeweyher, J.-M. Mewes, S. Ehlert and S. Grimme, Phys. Chem. Chem. Phys.
     2020, 22, 8499-8512. DOI: 10.1039/D0CP00502A
   
   for sTDA-xTB:
   * S. Grimme and C. Bannwarth, J. Chem. Phys., 2016, 145, 054103.
     DOI: 10.1063/1.4959605
   
   in the mass-spec context:
   * V. Asgeirsson, C. Bauer and S. Grimme, Chem. Sci., 2017, 8, 4879.
     DOI: 10.1039/c7sc00601b
   * J. Koopman and S. Grimme, ACS Omega 2019, 4, 12, 15120-15133.
     DOI: 10.1021/acsomega.9b02011
   
   for metadynamics refer to:
   * S. Grimme, J. Chem. Theory Comput., 2019, 155, 2847-2862
     DOI: 10.1021/acs.jctc.9b00143
   
   for SPH calculations refer to:
   * S. Spicher and S. Grimme, J. Chem. Theory Comput., 2021, 17, 1701-1714
     DOI: 10.1021/acs.jctc.0c01306
   
   for ONIOM refer to:
   * C. Plett, A. Katbashev, S. Ehlert, S. Grimme, M. Bursch,
     Phys. Chem. Chem. Phys., 2023, 25, 17860-17868. DOI: 10.1039/D3CP02178E
   
   for DIPRO refer to:
   * J. Kohn, N. Gildemeister, S. Grimme, D. Fazzi, A. Hansen,
     J. Chem. Phys., 2023, just accepted.
   
   for PTB refer to:
   * S. Grimme, M. Mueller, A. Hansen, J. Chem. Phys., 2023, 158, 124111.
     DOI: 10.1063/5.0137838
   
   with help from (in alphabetical order)
   P. Atkinson, C. Bannwarth, F. Bohle, G. Brandenburg, E. Caldeweyher
   M. Checinski, S. Dohm, S. Ehlert, S. Ehrlich, I. Gerasimov, C. Hölzer
   A. Katbashev, J. Kohn, J. Koopman, C. Lavigne, S. Lehtola, F. März, M. Müller,
   F. Musil, H. Neugebauer, J. Pisarek, C. Plett, P. Pracht, F. Pultar,
   J. Seibert, P. Shushkov, S. Spicher, M. Stahn, M. Steiner, T. Strunk,
   J. Stückrath, T. Rose, and J. Unsleber
   
 * started run on 2026/09/19 at 14:44:22.956     
   ID    Z sym.   atoms
    1    6 C      1-5
    2    1 H      6-15, 17
    3    8 O      16

           -------------------------------------------------
          |                Calculation Setup                |
           -------------------------------------------------

          program call               : /apps/eb/ORCA/6.1.1-gompi-2023b-avx2/bin/otool_xtb opt_XTB.xyz --grad -c 0 -u 1 -P 8 --namespace opt --input opt_XTB.input.tmp --acc 0.200000
          hostname                   : a1-8
          calculation namespace      : opt
          coordinate file            : opt_XTB.xyz
          omp threads                :                     8


molecular fragmentation (1/2 indicates fragments):
11111111111111122
# atoms in fragment 1/2:    15     2
 fragment masses (1/2) :       70.13       17.01
CMA distance (Bohr)    :   5.817
constraining FC (au)   :  0.0500

           -------------------------------------------------
          |                 G F N 2 - x T B                 |
           -------------------------------------------------

        Reference                      10.1021/acs.jctc.8b01176
      * Hamiltonian:
        H0-scaling (s, p, d)           1.850000    2.230000    2.230000
        zeta-weighting                 0.500000
      * Dispersion:
        s8                             2.700000
        a1                             0.520000
        a2                             5.000000
        s9                             5.000000
      * Repulsion:
        kExp                           1.500000    1.000000
        rExp                           1.000000
      * Coulomb:
        alpha                          2.000000
        third order                    shell-resolved
        anisotropic                    true
        a3                             3.000000
        a5                             4.000000
        cn-shift                       1.200000
        cn-exp                         4.000000
        max-rad                        5.000000

q/qsh data taken from xtbrestart
CAMM data taken from xtbrestart

          ...................................................
          :                      SETUP                      :
          :.................................................:
          :  # basis functions                  35          :
          :  # atomic orbitals                  35          :
          :  # shells                           23          :
          :  # electrons                        37          :
          :  max. iterations                   250          :
          :  Hamiltonian                  GFN2-xTB          :
          :  restarted?                       true          :
          :  GBSA solvation                  false          :
          :  PC potential                    false          :
          :  electronic temp.          300.0000000     K    :
          :  accuracy                    0.2000000          :
          :  -> integral cutoff          0.3198970E+02      :
          :  -> integral neglect         0.2000000E-08      :
          :  -> SCF convergence          0.2000000E-06 Eh   :
          :  -> wf. convergence          0.2000000E-04 e    :
          :  Broyden damping             0.4000000          :
          :  net charge                          0          :
          :  unpaired electrons                  1          :
          ...................................................

 iter      E             dE          RMSdq      gap      omega  full diag
   1    -20.5387094 -0.205387E+02  0.597E-03    3.72       0.0  T
   2    -20.5387094 -0.385001E-08  0.346E-03    3.72       7.0  T
   3    -20.5387094  0.347059E-08  0.554E-04    3.72      43.7  T
   4    -20.5387094 -0.453690E-08  0.103E-04    3.72     236.2  T
   5    -20.5387094 -0.836060E-10  0.535E-05    3.72     453.6  T

   *** convergence criteria satisfied after 5 iterations ***

         #    Occupation            Energy/Eh            Energy/eV
      -------------------------------------------------------------
         1        2.0000           -0.6462039             -17.5841
       ...           ...                  ...                  ...
        13        2.0000           -0.4732604             -12.8781
        14        2.0000           -0.4588322             -12.4855
        15        2.0000           -0.4535180             -12.3409
        16        2.0000           -0.4460091             -12.1365
        17        2.0000           -0.4130130             -11.2387
        18        2.0000           -0.3950602             -10.7501
        19        1.0000           -0.3481737              -9.4743 (HOMO)
        20                         -0.2113849              -5.7521 (LUMO)
        21                          0.0810388               2.2052
        22                          0.1012734               2.7558
        23                          0.1363611               3.7106
        24                          0.1592507               4.3334
       ...                                ...                  ...
        35                          0.5917101              16.1013
      -------------------------------------------------------------
                  HL-Gap            0.1367888 Eh            3.7222 eV
             Fermi-level           -0.3256981 Eh           -8.8627 eV

 SCC (total)                   0 d,  0 h,  0 min,  0.007 sec
 SCC setup                      ...        0 min,  0.001 sec ( 11.534%)
 Dispersion                     ...        0 min,  0.000 sec (  1.228%)
 classical contributions        ...        0 min,  0.000 sec (  0.304%)
 integral evaluation            ...        0 min,  0.000 sec (  6.148%)
 iterations                     ...        0 min,  0.005 sec ( 65.338%)
 molecular gradient             ...        0 min,  0.001 sec ( 12.663%)
 printout                       ...        0 min,  0.000 sec (  2.460%)

         :::::::::::::::::::::::::::::::::::::::::::::::::::::
         ::                     SUMMARY                     ::
         :::::::::::::::::::::::::::::::::::::::::::::::::::::
         :: total energy             -20.248962641855 Eh    ::
         :: gradient norm              0.076972396076 Eh/a0 ::
         :: HOMO-LUMO gap              3.722212605229 eV    ::
         ::.................................................::
         :: SCC energy               -20.538684986403 Eh    ::
         :: -> isotropic ES            0.047106156999 Eh    ::
         :: -> anisotropic ES         -0.001845786502 Eh    ::
         :: -> anisotropic XC          0.010306064547 Eh    ::
         :: -> dispersion             -0.008510792581 Eh    ::
         :: repulsion energy           0.289722344549 Eh    ::
         :: add. restraining           0.000000000000 Eh    ::
         :: total charge               0.000000000000 e     ::
         :::::::::::::::::::::::::::::::::::::::::::::::::::::


Property printout bound to 'properties.out'

           -------------------------------------------------
          | TOTAL ENERGY              -20.248962641855 Eh   |
          | GRADIENT NORM               0.076972396076 Eh/α |
          | HOMO-LUMO GAP               3.722212605229 eV   |
           -------------------------------------------------

------------------------------------------------------------------------
 * finished run on 2026/09/19 at 14:44:22.983     
------------------------------------------------------------------------
 total:
 * wall-time:     0 d,  0 h,  0 min,  0.027 sec
 *  cpu-time:     0 d,  0 h,  0 min,  0.183 sec
 * ratio c/w:     6.846 speedup
 SCF:
 * wall-time:     0 d,  0 h,  0 min,  0.007 sec
 *  cpu-time:     0 d,  0 h,  0 min,  0.055 sec
 * ratio c/w:     7.879 speedup


-------------------------   --------------------
FINAL SINGLE POINT ENERGY       -20.248962641850
-------------------------   --------------------


-------------
DIPOLE MOMENT
-------------
                                X             Y             Z
Total Dipole Moment    :      0.97900       0.97700       0.89600
                        -----------------------------------------
Magnitude (a.u.)       :      1.64796
Magnitude (Debye)      :      4.18879

                                *** OPTIMIZATION RUN DONE ***

Converting opt.gbw to JSON (see opt.2jsonout) ... FAILED

--------------------------------
SUGGESTED CITATIONS FOR THIS RUN
--------------------------------

Below you find a list of papers that are relevant to this ORCA run
We neither can nor want to force you to cite these papers, but we appreciate if you do
You receive ORCA, which is the product of decades of hard work by many enthusiastic individuals, for free
The only thing we kindly ask in return is that you cite our papers,
We deeply appreciate it, if you show your appreciation for ORCA by not just citing the generic ORCA reference.

Please note that relegating all ORCA citations to the supporting information does *not* help us.
SI sections are not indexed - citations you put there will not count into any citation statistics
But we need these citations in order to attract the funding resources that allow us to do what we are doing

Therefore, if you are a happy ORCA user, please consider citing a few of the papers listed below in the main body of your paper

In addition to the list printed below, the program has created the file opt.bibtex that contains the list in bibtex format
You can import this file easily into all common literature databanks and citation aid programs

It goes without saying that in many instances, there are alternative algorithms to achieve similar
results as the ones you have gotten from ORCA. It is, of course, also the case that in some instances
ORCA just re-implements algorithms worked out by others. We are fully aware of that and we are also
fully appreciative of our colleagues work. Hence this citation list should not be read as indicating
that the listed papers, which are focused on our own work, are the only ones worth citing. It simply
meant to make it easier for users to cite ORCA specific papers. It is not a substitute for doing your
own literature research and citing the relevant literature in a scientifically appropriate manner.

List of essential papers. We consider these as the minimum necessary citations

  1. Bannwarth, C.; Ehlert, S.; Grimme, S.
     GFN2-xTB—An Accurate and Broadly Parametrized Self-Consistent Tight-Binding Quantum Chemical Method with Multipole Electrostatics and Density-Dependent Dispersion Contributions
     J. Chem. Theory Comput. 2019 15(3), 1652-1671
     doi.org/10.1021/acs.jctc.8b01176
  2. Neese, F.
     Software update: the ORCA program system, version 6.0
     WIRES Comput. Molec. Sci. 2025 15(1), e70019
     doi.org/10.1002/wcms.70019

List of papers to cite with high priority. The work reported in these papers was absolutely
necessary for this run to complete.
Our perspective: the developers of density functionals and basis sets usually get cited in chemistry papers
Good! But without the algorithms to do something with them, the functionals or basis sets would not do anything.
Hence, in our opinion, the algorithm design and method developments papers are equally worthy of getting cited

  1. Bannwarth, C.; Caldeweyher, E.; Ehlert, S.; Hansen, A.; Pracht, P.; Seibert, J.; Spicher, S.; Grimme, S.
     Extended tight-binding quantum chemistry methods
     WIRES Comput. Molec. Sci. 2020 11(2), e1493
     doi.org/10.1002/wcms.1493

List of suggested additional citations. These are papers that are important in the 'surrounding' of 
of this run, or papers that preceded the highly important papers. If you like your results we are grateful for a citation.

  1. Neese, F.
     The ORCA program system
     WIRES Comput. Molec. Sci. 2012 2(1), 73-78
     doi.org/10.1002/wcms.81
  2. Neese, F.
     Software update: the ORCA program system, version 4.0
     WIRES Comput. Molec. Sci. 2018 8(1), 1-6
     doi.org/10.1002/wcms.1327
  3. Neese, F.; Wennmohs, F.; Becker, U.; Riplinger, C.
     The ORCA quantum chemistry program package
     J. Chem. Phys. 2020 152(22), 224108
     doi.org/10.1063/5.0004608
  4. Neese, F.
     Software update: The ORCA program system—Version 5.0
     WIRES Comput. Molec. Sci. 2022 12(1), e1606
     doi.org/10.1002/wcms.1606

List of optional additional citations

  1. Neese, F.
     Approximate second-order SCF convergence for spin unrestricted wavefunctions
     Chem. Phys. Lett. 2000 325(1-3), 93-98
     doi.org/10.1016/s0009-2614(00)00662-x

Timings for individual modules:

Sum of individual times          ...        0.789 sec (=   0.013 min)
Geometry relaxation              ...        0.164 sec (=   0.003 min)  20.8 %
XTB module                       ...        0.625 sec (=   0.010 min)  79.2 %
                             ****ORCA TERMINATED NORMALLY****
TOTAL RUN TIME: 0 days 0 hours 0 minutes 3 seconds 406 msec
