17
Coordinates from ORCA-job opt E -20.206875953630
  C       2.496588      0.648168     -0.193742
  C       1.257293     -0.168749      0.157312
  C       0.092679     -0.030132     -0.433421
  C      -1.149753     -0.840407     -0.078009
  C      -2.311605      0.079066      0.390179
  H       3.305113     -0.001387     -0.519334
  H       2.276320      1.350760     -0.988965
  H       2.848252      1.203599      0.671959
  H       1.379380     -0.898543      0.945106
  H      -0.033954      0.701377     -1.218384
  H      -1.474726     -1.407278     -0.946451
  H      -0.905003     -1.551111      0.702636
  H      -3.192535     -0.508324      0.624939
  H      -2.020210      0.634334      1.274588
  H      -2.567839      0.788627     -0.388412
  O      -1.495615     -1.933353     -2.243682
  H      -1.510611     -2.311015     -3.174944
17
Coordinates from ORCA-job opt E -20.218731422750
  C       2.456150      0.606057     -0.194805
  C       1.246040     -0.209064      0.140783
  C       0.056841     -0.043404     -0.424609
  C      -1.149753     -0.840407     -0.078009
  C      -2.313595      0.050893      0.351410
  H       3.252651     -0.039123     -0.560337
  H       2.220758      1.342910     -0.957556
  H       2.824796      1.119044      0.691782
  H       1.389049     -0.968775      0.898092
  H      -0.088515      0.715080     -1.181624
  H      -1.474726     -1.407278     -0.946451
  H      -0.906956     -1.558498      0.706549
  H      -3.189992     -0.551721      0.571731
  H      -2.040002      0.611826      1.242358
  H      -2.563614      0.755966     -0.437025
  O      -1.495615     -1.933353     -2.243682
  H      -1.383995     -2.217792     -3.159951
17
Coordinates from ORCA-job opt E -20.229193015740
  C       2.427776      0.587124     -0.163987
  C       1.235747     -0.224684      0.154332
  C       0.031055     -0.054054     -0.408506
  C      -1.149753     -0.840407     -0.078009
  C      -2.333745      0.016090      0.311476
  H       3.222934     -0.057954     -0.538504
  H       2.195398      1.339609     -0.914890
  H       2.798311      1.080084      0.735483
  H       1.384943     -0.995707      0.900000
  H      -0.116727      0.713689     -1.157038
  H      -1.474726     -1.407278     -0.946451
  H      -0.913221     -1.571772      0.704152
  H      -3.203780     -0.605636      0.510751
  H      -2.092416      0.583508      1.211549
  H      -2.580104      0.718197     -0.483215
  O      -1.495615     -1.933353     -2.243682
  H      -1.181238     -2.061801     -3.118002
17
Coordinates from ORCA-job opt E -20.235629293260
  C       2.428049      0.587785     -0.151649
  C       1.237796     -0.225965      0.158615
  C       0.028052     -0.053641     -0.401268
  C      -1.149753     -0.840407     -0.078009
  C      -2.350916     -0.001537      0.293836
  H       3.223761     -0.055481     -0.530620
  H       2.200218      1.348803     -0.895781
  H       2.800555      1.070796      0.753208
  H       1.386704     -1.003538      0.897845
  H      -0.116735      0.720640     -1.144527
  H      -1.474726     -1.407278     -0.946451
  H      -0.917952     -1.579183      0.700654
  H      -3.216595     -0.633488      0.480590
  H      -2.130706      0.568571      1.198811
  H      -2.596381      0.699660     -0.502298
  O      -1.495615     -1.933353     -2.243682
  H      -1.045585     -1.950057     -3.070270
17
Coordinates from ORCA-job opt E -20.243553151570
  C       2.440287      0.594286     -0.154244
  C       1.244220     -0.225006      0.151108
  C       0.033688     -0.046967     -0.396924
  C      -1.149753     -0.840407     -0.078009
  C      -2.373398     -0.017842      0.280525
  H       3.235015     -0.043900     -0.544358
  H       2.216663      1.367447     -0.885946
  H       2.820130      1.063319      0.754656
  H       1.390873     -1.013729      0.878665
  H      -0.105684      0.739066     -1.129325
  H      -1.474726     -1.407278     -0.946451
  H      -0.924232     -1.586855      0.692924
  H      -3.233321     -0.660234      0.453436
  H      -2.178244      0.553691      1.190013
  H      -2.618500      0.682621     -0.515344
  O      -1.495615     -1.933353     -2.243682
  H      -0.869307     -1.779826     -2.942942
17
Coordinates from ORCA-job opt E -20.247905627450
  C       2.454349      0.565082     -0.212095
  C       1.254416     -0.256744      0.095435
  C       0.033742     -0.040838     -0.397938
  C      -1.149753     -0.840407     -0.078009
  C      -2.390582     -0.034268      0.271556
  H       3.228749     -0.060003     -0.658758
  H       2.219810      1.376144     -0.896365
  H       2.871314      0.984832      0.703578
  H       1.410849     -1.083033      0.777772
  H      -0.113356      0.784263     -1.084840
  H      -1.474726     -1.407278     -0.946451
  H      -0.929609     -1.596172      0.680919
  H      -3.243733     -0.688044      0.429089
  H      -2.219464      0.535034      1.186250
  H      -2.633848      0.667035     -0.522959
  O      -1.495615     -1.933353     -2.243682
  H      -0.745497     -1.618623     -2.743393
17
Coordinates from ORCA-job opt E -20.248581195600
  C       2.473133      0.494988     -0.329951
  C       1.273118     -0.322140     -0.009496
  C       0.031096     -0.040061     -0.405824
  C      -1.149753     -0.840407     -0.078009
  C      -2.388637     -0.034174      0.278114
  H       3.201386     -0.108621     -0.872755
  H       2.215720      1.361907     -0.932881
  H       2.956552      0.833138      0.586723
  H       1.450140     -1.203543      0.594564
  H      -0.137176      0.840080     -1.015437
  H      -1.474726     -1.407278     -0.946451
  H      -0.927692     -1.600166      0.675810
  H      -3.241987     -0.689055      0.430782
  H      -2.218172      0.529004      1.196462
  H      -2.629978      0.671846     -0.512900
  O      -1.495615     -1.933353     -2.243682
  H      -0.712282     -1.559351     -2.646752
17
Coordinates from ORCA-job opt E -20.248831548360
  C       2.485456      0.435141     -0.435812
  C       1.285041     -0.375158     -0.100394
  C       0.030587     -0.041755     -0.413044
  C      -1.149753     -0.840407     -0.078009
  C      -2.381175     -0.028373      0.289015
  H       3.169489     -0.148568     -1.052595
  H       2.214748      1.341878     -0.970915
  H       3.023434      0.707402      0.472424
  H       1.473722     -1.295317      0.438574
  H      -0.150734      0.875493     -0.960626
  H      -1.474726     -1.407278     -0.946451
  H      -0.924362     -1.601743      0.673424
  H      -3.237456     -0.679636      0.442069
  H      -2.202687      0.528555      1.209465
  H      -2.621651      0.682616     -0.497873
  O      -1.495615     -1.933353     -2.243682
  H      -0.713743     -1.564340     -2.655544
17
Coordinates from ORCA-job opt E -20.248952428740
  C       2.494305      0.363453     -0.570261
  C       1.292557     -0.435808     -0.212247
  C       0.031633     -0.045400     -0.420612
  C      -1.149753     -0.840407     -0.078009
  C      -2.371921     -0.023543      0.304752
  H       3.119434     -0.193987     -1.268273
  H       2.216537      1.311458     -1.024240
  H       3.096220      0.558309      0.317530
  H       1.486726     -1.395281      0.249977
  H      -0.157400      0.908541     -0.897312
  H      -1.474726     -1.407278     -0.946451
  H      -0.920797     -1.607224      0.666584
  H      -3.231626     -0.670472      0.457920
  H      -2.183312      0.523733      1.228714
  H      -2.612820      0.694798     -0.475168
  O      -1.495615     -1.933353     -2.243682
  H      -0.717886     -1.573071     -2.669005
17
Coordinates from ORCA-job opt E -20.248958814100
  C       2.495813      0.351942     -0.585932
  C       1.293090     -0.445257     -0.226441
  C       0.032628     -0.046418     -0.420495
  C      -1.149753     -0.840407     -0.078009
  C      -2.370635     -0.024443      0.308825
  H       3.112731     -0.201524     -1.294325
  H       2.219209      1.305715     -1.028260
  H       3.105812      0.534930      0.298857
  H       1.485959     -1.409707      0.225732
  H      -0.155456      0.912668     -0.887093
  H      -1.474726     -1.407278     -0.946451
  H      -0.920482     -1.610582      0.663200
  H      -3.230698     -0.671069      0.461362
  H      -2.180550      0.519860      1.234269
  H      -2.612521      0.696294     -0.468594
  O      -1.495615     -1.933353     -2.243682
  H      -0.718093     -1.573571     -2.669729
17
Coordinates from ORCA-job opt E -20.248962191060
  C       2.497251      0.344984     -0.589650
  C       1.293293     -0.450775     -0.231185
  C       0.033549     -0.047256     -0.419135
  C      -1.149753     -0.840407     -0.078009
  C      -2.369976     -0.026413      0.312922
  H       3.110661     -0.206603     -1.302624
  H       2.222625      1.301917     -1.026217
  H       3.110533      0.521318      0.294231
  H       1.484182     -1.417784      0.216354
  H      -0.152716      0.914781     -0.880409
  H      -1.474726     -1.407278     -0.946451
  H      -0.920211     -1.614827      0.659066
  H      -3.230113     -0.673213      0.464381
  H      -2.179041      0.514634      1.240177
  H      -2.613251      0.697143     -0.461506
  O      -1.495615     -1.933353     -2.243682
  H      -0.718171     -1.573713     -2.670033
17
Coordinates from ORCA-job opt E -20.248962641850
  C       2.497214      0.346114     -0.586298
  C       1.293172     -0.449857     -0.228811
  C       0.033407     -0.047065     -0.418421
  C      -1.149753     -0.840407     -0.078009
  C      -2.370166     -0.027381      0.313916
  H       3.111631     -0.205650     -1.298313
  H       2.222905      1.302760     -1.023689
  H       3.109552      0.523067      0.298123
  H       1.483767     -1.416671      0.219331
  H      -0.152504      0.914871     -0.880090
  H      -1.474726     -1.407278     -0.946451
  H      -0.919899     -1.616023      0.657868
  H      -3.230128     -0.674538      0.464862
  H      -2.179350      0.512782      1.241740
  H      -2.613920      0.697053     -0.459569
  O      -1.495615     -1.933353     -2.243682
  H      -0.718158     -1.573559     -2.669909
