17
Coordinates from ORCA-job IRC_IRC_F E -268.794324258895
  C           2.34136936089943     -3.95151134897715      1.92103411304636
  C           1.49975429452477     -2.90000487263435      1.20515050451791
  C           2.01338807629387     -1.80156048751943      0.67892534765972
  C           1.24743386466019     -0.74257352809746     -0.10717126516407
  C          -0.29087443538018     -0.81084589422550      0.04238558856854
  H           3.38364056317910     -3.65424325634859      1.93548678827175
  H           2.26448705496538     -4.91222807668231      1.41800392901933
  H           2.00456842955020     -4.08643442911428      2.94532908368678
  H           0.44225008992197     -3.10273868109231      1.13602418360606
  H           3.07743879826856     -1.62589712680666      0.75131936458041
  H           1.52391152971814     -0.85613057635000     -1.14917271273643
  H           1.59538386029588      0.24441566749370      0.17970726332905
  H          -0.76100607011156     -0.03812099690519     -0.55660305224253
  H          -0.67667542052888     -1.77206019397875     -0.27561513793280
  H          -0.57498452334642     -0.65847723131223      1.07748626362625
  O           1.43267984040434     -1.26887002692889     -3.18724954142096
  H           0.48075908267572     -1.38549004927840     -2.88844410943784
