17
Coordinates from ORCA-job IRC_IRC_B E -268.806636809317
  C           2.35591286394257     -3.98088403774779      1.89537278951799
  C           1.48696099585019     -2.93498001117388      1.20724189026955
  C           1.99274648950399     -1.71681358431669      0.73252849530945
  C           1.19444263809220     -0.67193336841837      0.23170917756743
  C          -0.32466613423057     -0.77302520534448      0.11835742831300
  H           3.39454667048603     -3.67091004587198      1.90262368920454
  H           2.28409482464067     -4.94709182678034      1.40186214156048
  H           2.03084906336461     -4.11315032700745      2.92544694777497
  H           0.42716546162604     -3.13225927061328      1.14982692858939
  H           3.06120244456467     -1.56219379654546      0.77327574038635
  H           1.65600149066759     -1.12991415348802     -1.86614859062484
  H           1.66226148129988      0.25497779656382     -0.06657204333739
  H          -0.71553879885475     -0.01145720132803     -0.54837361613528
  H          -0.62397562401576     -1.74639821185268     -0.25693518781968
  H          -0.79110413709682     -0.63921947240028      1.09203091825942
  O           1.44182827457522     -1.18575641484931     -2.81643142844720
  H           0.48546381981378     -1.37519204033632     -2.84709383138511
