17
Coordinates from ORCA-job IRC_IRC_B E -268.752021452835
  C       2.344138     -3.950029      1.906320
  C       1.495001     -2.916623      1.174088
  C       2.011848     -1.782208      0.625415
  C       1.229689     -0.770268     -0.123667
  C      -0.303291     -0.808012      0.028110
  H       3.384481     -3.646061      1.924114
  H       2.276311     -4.918807      1.416918
  H       2.002143     -4.074381      2.930900
  H       0.437008     -3.119253      1.108828
  H       3.075251     -1.604289      0.702215
  H       1.475675     -1.004877     -1.454406
  H       1.640450      0.231308     -0.045611
  H      -0.767281     -0.035220     -0.575448
  H      -0.701521     -1.769005     -0.276891
  H      -0.582420     -0.643602      1.065037
  O       1.480776     -1.173325     -2.612739
  H       0.519932     -1.351548     -2.764459
17
Coordinates from ORCA-job IRC_IRC_B E -268.775518898462
  C       2.344580     -3.951302      1.906427
  C       1.495078     -2.918152      1.172816
  C       2.010615     -1.778800      0.621078
  C       1.222989     -0.760571     -0.055144
  C      -0.304299     -0.809228      0.030951
  H       3.384684     -3.645853      1.924048
  H       2.276467     -4.918884      1.417111
  H       2.002148     -4.074484      2.931186
  H       0.434288     -3.120304      1.108992
  H       3.075542     -1.602838      0.701227
  H       1.484026     -1.019720     -1.549833
  H       1.643280      0.230949     -0.054593
  H      -0.766418     -0.034375     -0.576893
  H      -0.701731     -1.770331     -0.277822
  H      -0.583730     -0.643958      1.062503
  O       1.471428     -1.168172     -2.569070
  H       0.529243     -1.350181     -2.764263
17
Coordinates from ORCA-job IRC_IRC_B E -268.784731626921
  C       2.344725     -3.950700      1.906006
  C       1.490565     -2.927558      1.175525
  C       2.011628     -1.766945      0.615053
  C       1.218965     -0.759197     -0.007079
  C      -0.304886     -0.809202      0.027978
  H       3.384739     -3.645944      1.924028
  H       2.276598     -4.919691      1.416972
  H       2.002092     -4.074438      2.931057
  H       0.434914     -3.120210      1.109258
  H       3.075138     -1.602329      0.700628
  H       1.489455     -1.027280     -1.595185
  H       1.646823      0.233647     -0.061085
  H      -0.764522     -0.035170     -0.576404
  H      -0.700733     -1.770466     -0.277836
  H      -0.588229     -0.643718      1.065247
  O       1.468841     -1.167073     -2.560724
  H       0.532079     -1.349925     -2.764718
17
Coordinates from ORCA-job IRC_IRC_B E -268.790940772968
  C       2.345191     -3.953805      1.905939
  C       1.492013     -2.928839      1.172610
  C       2.009648     -1.766566      0.619578
  C       1.215284     -0.742897      0.051029
  C      -0.306502     -0.809859      0.037231
  H       3.384727     -3.645720      1.923742
  H       2.277477     -4.920988      1.417578
  H       2.002390     -4.074604      2.930826
  H       0.430985     -3.121786      1.110188
  H       3.076033     -1.599872      0.698935
  H       1.498689     -1.032644     -1.620962
  H       1.650416      0.232787     -0.071512
  H      -0.760411     -0.034643     -0.577616
  H      -0.698433     -1.771683     -0.278667
  H      -0.599072     -0.644252      1.064698
  O       1.466925     -1.170422     -2.587848
  H       0.532831     -1.350410     -2.767029
17
Coordinates from ORCA-job IRC_IRC_B E -268.795204426486
  C       2.345390     -3.955835      1.904445
  C       1.489415     -2.937140      1.172053
  C       2.010266     -1.759872      0.630847
  C       1.211490     -0.730671      0.094820
  C      -0.309235     -0.807412      0.046535
  H       3.384617     -3.645978      1.923247
  H       2.279129     -4.924922      1.418147
  H       2.002703     -4.074960      2.930281
  H       0.429892     -3.122928      1.111985
  H       3.076648     -1.597705      0.697052
  H       1.513564     -1.038764     -1.648262
  H       1.656635      0.237166     -0.081199
  H      -0.751994     -0.036061     -0.576224
  H      -0.691085     -1.771130     -0.278102
  H      -0.622954     -0.644472      1.070973
  O       1.468085     -1.172279     -2.612143
  H       0.525625     -1.353237     -2.775733
17
Coordinates from ORCA-job IRC_IRC_B E -268.798629571457
  C       2.346743     -3.961040      1.903152
  C       1.489352     -2.938986      1.170214
  C       2.008977     -1.753444      0.647506
  C       1.209613     -0.715857      0.128309
  C      -0.310489     -0.803290      0.063270
  H       3.383766     -3.646841      1.922064
  H       2.281928     -4.930808      1.419451
  H       2.003305     -4.076001      2.929186
  H       0.427762     -3.125290      1.114578
  H       3.076696     -1.595780      0.696913
  H       1.532874     -1.046239     -1.677371
  H       1.661453      0.238714     -0.089456
  H      -0.742153     -0.035847     -0.574067
  H      -0.678948     -1.769257     -0.275955
  H      -0.656978     -0.645183      1.076814
  O       1.463810     -1.174819     -2.638896
  H       0.520481     -1.356233     -2.786990
17
Coordinates from ORCA-job IRC_IRC_B E -268.801211700314
  C       2.346588     -3.964533      1.900642
  C       1.488725     -2.942081      1.172957
  C       2.006523     -1.744944      0.662418
  C       1.207287     -0.704996      0.154195
  C      -0.313186     -0.798067      0.077944
  H       3.383958     -3.648876      1.920317
  H       2.285125     -4.937492      1.420700
  H       2.004329     -4.078082      2.927335
  H       0.427938     -3.127138      1.117522
  H       3.077072     -1.593621      0.700305
  H       1.552974     -1.055181     -1.705533
  H       1.665289      0.240729     -0.094892
  H      -0.732300     -0.034351     -0.569489
  H      -0.662683     -1.765146     -0.271320
  H      -0.693817     -0.645655      1.082329
  O       1.461108     -1.177040     -2.668025
  H       0.513262     -1.359729     -2.798686
17
Coordinates from ORCA-job IRC_IRC_B E -268.803133753276
  C       2.348484     -3.969042      1.899153
  C       1.489015     -2.940836      1.176011
  C       2.004974     -1.738660      0.677141
  C       1.205317     -0.694532      0.178621
  C      -0.314835     -0.791348      0.092124
  H       3.384624     -3.652201      1.917840
  H       2.287692     -4.943073      1.421034
  H       2.006085     -4.081787      2.925845
  H       0.427438     -3.129130      1.121397
  H       3.074465     -1.590484      0.707528
  H       1.573950     -1.066851     -1.738190
  H       1.666832      0.241616     -0.097155
  H      -0.724949     -0.030053     -0.564354
  H      -0.646400     -1.762131     -0.266218
  H      -0.728836     -0.645531      1.085858
  O       1.457154     -1.179052     -2.698125
  H       0.507180     -1.363105     -2.809786
17
Coordinates from ORCA-job IRC_IRC_B E -268.804467639719
  C       2.349387     -3.972310      1.897487
  C       1.488159     -2.943768      1.182949
  C       2.000684     -1.732754      0.691916
  C       1.199521     -0.684612      0.199037
  C      -0.319146     -0.785115      0.103830
  H       3.386835     -3.656794      1.915090
  H       2.288876     -4.946265      1.419453
  H       2.009836     -4.087270      2.924458
  H       0.428572     -3.130100      1.126602
  H       3.074734     -1.585228      0.719218
  H       1.596132     -1.080962     -1.772396
  H       1.667964      0.244493     -0.094954
  H      -0.718573     -0.026121     -0.557816
  H      -0.631610     -1.757024     -0.261172
  H      -0.757044     -0.644653      1.086912
  O       1.454222     -1.180832     -2.730778
  H       0.499642     -1.366885     -2.821114
17
Coordinates from ORCA-job IRC_IRC_B E -268.804625274003
  C       2.350027     -3.972940      1.897574
  C       1.488487     -2.942066      1.183100
  C       2.001015     -1.731754      0.693553
  C       1.200735     -0.684311      0.201307
  C      -0.318635     -0.784421      0.104785
  H       3.387062     -3.657374      1.914686
  H       2.288820     -4.946774      1.418880
  H       2.010452     -4.088225      2.924739
  H       0.428085     -3.130542      1.127483
  H       3.072837     -1.584606      0.721000
  H       1.598717     -1.082876     -1.776662
  H       1.667400      0.244483     -0.093940
  H      -0.718792     -0.024952     -0.557805
  H      -0.631000     -1.757169     -0.261052
  H      -0.759694     -0.644382      1.087758
  O       1.453403     -1.181068     -2.734359
  H       0.499270     -1.367223     -2.822326
17
Coordinates from ORCA-job IRC_IRC_B E -268.804789635425
  C       2.350491     -3.973538      1.897502
  C       1.488582     -2.941214      1.183995
  C       2.000781     -1.730775      0.695794
  C       1.200852     -0.683446      0.203871
  C      -0.318685     -0.783567      0.105981
  H       3.387447     -3.658173      1.914161
  H       2.288720     -4.947143      1.418171
  H       2.011356     -4.089451      2.924849
  H       0.427914     -3.130859      1.128612
  H       3.071706     -1.583585      0.723482
  H       1.602153     -1.085419     -1.782115
  H       1.667044      0.244860     -0.092642
  H      -0.718595     -0.023972     -0.557289
  H      -0.629983     -1.756752     -0.260686
  H      -0.762677     -0.644101      1.088245
  O       1.452615     -1.181339     -2.739280
  H       0.498470     -1.367728     -2.823931
17
Coordinates from ORCA-job IRC_IRC_B E -268.805036200800
  C       2.351007     -3.974364      1.897303
  C       1.488539     -2.940747      1.185898
  C       1.999984     -1.729397      0.699377
  C       1.200156     -0.681848      0.207536
  C      -0.319249     -0.782287      0.107770
  H       3.388102     -3.659459      1.913306
  H       2.288515     -4.947482      1.417037
  H       2.012887     -4.091403      2.924850
  H       0.427894     -3.131185      1.130406
  H       3.070769     -1.581807      0.727577
  H       1.607703     -1.089418     -1.789936
  H       1.666709      0.245731     -0.090540
  H      -0.718015     -0.022753     -0.556195
  H      -0.628356     -1.755725     -0.260016
  H      -0.766922     -0.643691      1.088648
  O       1.450758     -1.181944     -2.747914
  H       0.497710     -1.368422     -2.826387
17
Coordinates from ORCA-job IRC_IRC_B E -268.805293598430
  C       2.351536     -3.975196      1.897028
  C       1.488294     -2.940533      1.188352
  C       1.998983     -1.727634      0.703438
  C       1.199355     -0.680169      0.211471
  C      -0.320047     -0.780983      0.109717
  H       3.388919     -3.660951      1.912267
  H       2.288204     -4.947781      1.415604
  H       2.014748     -4.093749      2.924863
  H       0.428007     -3.131469      1.132548
  H       3.069819     -1.579646      0.732529
  H       1.613967     -1.094236     -1.800044
  H       1.666326      0.246853     -0.087948
  H      -0.717406     -0.021325     -0.554993
  H      -0.626716     -1.754457     -0.259294
  H      -0.771395     -0.643195      1.089076
  O       1.449524     -1.182368     -2.756599
  H       0.496075     -1.369362     -2.829294
17
Coordinates from ORCA-job IRC_IRC_B E -268.805528378889
  C       2.352247     -3.976178      1.896881
  C       1.488309     -2.939651      1.190635
  C       1.998203     -1.726266      0.707605
  C       1.198514     -0.678588      0.214956
  C      -0.320630     -0.779567      0.111367
  H       3.389643     -3.662421      1.911137
  H       2.287804     -4.947931      1.414048
  H       2.016722     -4.096206      2.924914
  H       0.427817     -3.131795      1.134771
  H       3.068606     -1.577410      0.737688
  H       1.620125     -1.099033     -1.809229
  H       1.665835      0.247943     -0.085159
  H      -0.716933     -0.019941     -0.553873
  H      -0.625571     -1.753375     -0.258745
  H      -0.775288     -0.642678      1.089571
  O       1.448564     -1.182791     -2.765817
  H       0.494225     -1.370315     -2.832030
17
Coordinates from ORCA-job IRC_IRC_B E -268.805748191869
  C       2.352709     -3.976927      1.896597
  C       1.488005     -2.939415      1.193367
  C       1.997105     -1.724492      0.711603
  C       1.197757     -0.677233      0.218230
  C      -0.321431     -0.778415      0.112891
  H       3.390520     -3.663886      1.909938
  H       2.287327     -4.947989      1.412328
  H       2.018832     -4.098784      2.924967
  H       0.427931     -3.131949      1.137087
  H       3.067677     -1.575032      0.743153
  H       1.626225     -1.104020     -1.819153
  H       1.665345      0.249142     -0.082215
  H      -0.716518     -0.018547     -0.552793
  H      -0.624671     -1.752104     -0.258220
  H      -0.778694     -0.642140      1.089945
  O       1.447174     -1.183255     -2.774285
  H       0.492898     -1.371155     -2.834718
17
Coordinates from ORCA-job IRC_IRC_B E -268.805953872131
  C       2.353454     -3.977838      1.896429
  C       1.487932     -2.938427      1.195903
  C       1.996322     -1.723083      0.715838
  C       1.196983     -0.675930      0.221273
  C      -0.322034     -0.777186      0.114234
  H       3.391268     -3.665360      1.908629
  H       2.286775     -4.947958      1.410468
  H       2.021061     -4.101501      2.925065
  H       0.427730     -3.132162      1.139514
  H       3.066356     -1.572577      0.748861
  H       1.632378     -1.109080     -1.828529
  H       1.664764      0.250316     -0.079131
  H      -0.716221     -0.017111     -0.551798
  H      -0.624115     -1.750976     -0.257827
  H      -0.781795     -0.641571      1.090419
  O       1.446164     -1.183697     -2.783263
  H       0.491169     -1.372059     -2.837364
17
Coordinates from ORCA-job IRC_IRC_B E -268.806145516164
  C       2.353919     -3.978563      1.896133
  C       1.487582     -2.938138      1.198880
  C       1.995181     -1.721339      0.719908
  C       1.196152     -0.674725      0.224085
  C      -0.322802     -0.776093      0.115450
  H       3.392155     -3.666802      1.907250
  H       2.286166     -4.947797      1.408485
  H       2.023412     -4.104295      2.925105
  H       0.427804     -3.132189      1.142000
  H       3.065431     -1.570011      0.754804
  H       1.638407     -1.114260     -1.838369
  H       1.664204      0.251532     -0.075980
  H      -0.715916     -0.015755     -0.550788
  H      -0.623763     -1.749716     -0.257465
  H      -0.784464     -0.641001      1.090751
  O       1.444876     -1.184185     -2.791597
  H       0.489848     -1.372863     -2.839930
17
Coordinates from ORCA-job IRC_IRC_B E -268.806323947652
  C       2.354687     -3.979425      1.895940
  C       1.487477     -2.936908      1.201537
  C       1.994463     -1.719918      0.724200
  C       1.195548     -0.673707      0.226793
  C      -0.323395     -0.774997      0.116526
  H       3.392917     -3.668228      1.905767
  H       2.285504     -4.947632      1.406359
  H       2.025838     -4.107215      2.925241
  H       0.427522     -3.132306      1.144585
  H       3.063919     -1.567425      0.760898
  H       1.644445     -1.119479     -1.847674
  H       1.663551      0.252711     -0.072790
  H      -0.715769     -0.014282     -0.549938
  H      -0.623686     -1.748615     -0.257232
  H      -0.786947     -0.640400      1.091230
  O       1.443879     -1.184674     -2.800292
  H       0.488237     -1.373701     -2.842427
17
Coordinates from ORCA-job IRC_IRC_B E -268.806488534513
  C       2.355121     -3.980117      1.895611
  C       1.487040     -2.936810      1.204787
  C       1.993174     -1.718190      0.728278
  C       1.194474     -0.672529      0.229184
  C      -0.324146     -0.773970      0.117490
  H       3.393768     -3.669613      1.904227
  H       2.284805     -4.947228      1.404185
  H       2.028372     -4.110135      2.925182
  H       0.427603     -3.132166      1.147175
  H       3.063213     -1.564737      0.767146
  H       1.650293     -1.124755     -1.857353
  H       1.663001      0.253900     -0.069628
  H      -0.715478     -0.013042     -0.548949
  H      -0.623703     -1.747324     -0.256989
  H      -0.789018     -0.639831      1.091451
  O       1.442715     -1.185209     -2.808248
  H       0.486959     -1.374445     -2.844827
17
Coordinates from ORCA-job IRC_IRC_B E -268.806636809317
  C       2.355913     -3.980884      1.895373
  C       1.486961     -2.934980      1.207242
  C       1.992746     -1.716814      0.732528
  C       1.194443     -0.671933      0.231709
  C      -0.324666     -0.773025      0.118357
  H       3.394547     -3.670910      1.902624
  H       2.284095     -4.947092      1.401862
  H       2.030849     -4.113150      2.925447
  H       0.427165     -3.132259      1.149827
  H       3.061202     -1.562194      0.773276
  H       1.656001     -1.129914     -1.866149
  H       1.662261      0.254978     -0.066572
  H      -0.715539     -0.011457     -0.548374
  H      -0.623976     -1.746398     -0.256935
  H      -0.791104     -0.639219      1.092031
  O       1.441828     -1.185756     -2.816431
  H       0.485464     -1.375192     -2.847094
