17
Coordinates from ORCA-job IRC_IRC_Full E -268.806636809317
  C       2.355913     -3.980884      1.895373
  C       1.486961     -2.934980      1.207242
  C       1.992746     -1.716814      0.732528
  C       1.194443     -0.671933      0.231709
  C      -0.324666     -0.773025      0.118357
  H       3.394547     -3.670910      1.902624
  H       2.284095     -4.947092      1.401862
  H       2.030849     -4.113150      2.925447
  H       0.427165     -3.132259      1.149827
  H       3.061202     -1.562194      0.773276
  H       1.656001     -1.129914     -1.866149
  H       1.662261      0.254978     -0.066572
  H      -0.715539     -0.011457     -0.548374
  H      -0.623976     -1.746398     -0.256935
  H      -0.791104     -0.639219      1.092031
  O       1.441828     -1.185756     -2.816431
  H       0.485464     -1.375192     -2.847094
17
Coordinates from ORCA-job IRC_IRC_Full E -268.806488534513
  C       2.355121     -3.980117      1.895611
  C       1.487040     -2.936810      1.204787
  C       1.993174     -1.718190      0.728278
  C       1.194474     -0.672529      0.229184
  C      -0.324146     -0.773970      0.117490
  H       3.393768     -3.669613      1.904227
  H       2.284805     -4.947228      1.404185
  H       2.028372     -4.110135      2.925182
  H       0.427603     -3.132166      1.147175
  H       3.063213     -1.564737      0.767146
  H       1.650293     -1.124755     -1.857353
  H       1.663001      0.253900     -0.069628
  H      -0.715478     -0.013042     -0.548949
  H      -0.623703     -1.747324     -0.256989
  H      -0.789018     -0.639831      1.091451
  O       1.442715     -1.185209     -2.808248
  H       0.486959     -1.374445     -2.844827
17
Coordinates from ORCA-job IRC_IRC_Full E -268.806323947652
  C       2.354687     -3.979425      1.895940
  C       1.487477     -2.936908      1.201537
  C       1.994463     -1.719918      0.724200
  C       1.195548     -0.673707      0.226793
  C      -0.323395     -0.774997      0.116526
  H       3.392917     -3.668228      1.905767
  H       2.285504     -4.947632      1.406359
  H       2.025838     -4.107215      2.925241
  H       0.427522     -3.132306      1.144585
  H       3.063919     -1.567425      0.760898
  H       1.644445     -1.119479     -1.847674
  H       1.663551      0.252711     -0.072790
  H      -0.715769     -0.014282     -0.549938
  H      -0.623686     -1.748615     -0.257232
  H      -0.786947     -0.640400      1.091230
  O       1.443879     -1.184674     -2.800292
  H       0.488237     -1.373701     -2.842427
17
Coordinates from ORCA-job IRC_IRC_Full E -268.806145516164
  C       2.353919     -3.978563      1.896133
  C       1.487582     -2.938138      1.198880
  C       1.995181     -1.721339      0.719908
  C       1.196152     -0.674725      0.224085
  C      -0.322802     -0.776093      0.115450
  H       3.392155     -3.666802      1.907250
  H       2.286166     -4.947797      1.408485
  H       2.023412     -4.104295      2.925105
  H       0.427804     -3.132189      1.142000
  H       3.065431     -1.570011      0.754804
  H       1.638407     -1.114260     -1.838369
  H       1.664204      0.251532     -0.075980
  H      -0.715916     -0.015755     -0.550788
  H      -0.623763     -1.749716     -0.257465
  H      -0.784464     -0.641001      1.090751
  O       1.444876     -1.184185     -2.791597
  H       0.489848     -1.372863     -2.839930
17
Coordinates from ORCA-job IRC_IRC_Full E -268.805953872131
  C       2.353454     -3.977838      1.896429
  C       1.487932     -2.938427      1.195903
  C       1.996322     -1.723083      0.715838
  C       1.196983     -0.675930      0.221273
  C      -0.322034     -0.777186      0.114234
  H       3.391268     -3.665360      1.908629
  H       2.286775     -4.947958      1.410468
  H       2.021061     -4.101501      2.925065
  H       0.427730     -3.132162      1.139514
  H       3.066356     -1.572577      0.748861
  H       1.632378     -1.109080     -1.828529
  H       1.664764      0.250316     -0.079131
  H      -0.716221     -0.017111     -0.551798
  H      -0.624115     -1.750976     -0.257827
  H      -0.781795     -0.641571      1.090419
  O       1.446164     -1.183697     -2.783263
  H       0.491169     -1.372059     -2.837364
17
Coordinates from ORCA-job IRC_IRC_Full E -268.805748191869
  C       2.352709     -3.976927      1.896597
  C       1.488005     -2.939415      1.193367
  C       1.997105     -1.724492      0.711603
  C       1.197757     -0.677233      0.218230
  C      -0.321431     -0.778415      0.112891
  H       3.390520     -3.663886      1.909938
  H       2.287327     -4.947989      1.412328
  H       2.018832     -4.098784      2.924967
  H       0.427931     -3.131949      1.137087
  H       3.067677     -1.575032      0.743153
  H       1.626225     -1.104020     -1.819153
  H       1.665345      0.249142     -0.082215
  H      -0.716518     -0.018547     -0.552793
  H      -0.624671     -1.752104     -0.258220
  H      -0.778694     -0.642140      1.089945
  O       1.447174     -1.183255     -2.774285
  H       0.492898     -1.371155     -2.834718
17
Coordinates from ORCA-job IRC_IRC_Full E -268.805528378889
  C       2.352247     -3.976178      1.896881
  C       1.488309     -2.939651      1.190635
  C       1.998203     -1.726266      0.707605
  C       1.198514     -0.678588      0.214956
  C      -0.320630     -0.779567      0.111367
  H       3.389643     -3.662421      1.911137
  H       2.287804     -4.947931      1.414048
  H       2.016722     -4.096206      2.924914
  H       0.427817     -3.131795      1.134771
  H       3.068606     -1.577410      0.737688
  H       1.620125     -1.099033     -1.809229
  H       1.665835      0.247943     -0.085159
  H      -0.716933     -0.019941     -0.553873
  H      -0.625571     -1.753375     -0.258745
  H      -0.775288     -0.642678      1.089571
  O       1.448564     -1.182791     -2.765817
  H       0.494225     -1.370315     -2.832030
17
Coordinates from ORCA-job IRC_IRC_Full E -268.805293598430
  C       2.351536     -3.975196      1.897028
  C       1.488294     -2.940533      1.188352
  C       1.998983     -1.727634      0.703438
  C       1.199355     -0.680169      0.211471
  C      -0.320047     -0.780983      0.109717
  H       3.388919     -3.660951      1.912267
  H       2.288204     -4.947781      1.415604
  H       2.014748     -4.093749      2.924863
  H       0.428007     -3.131469      1.132548
  H       3.069819     -1.579646      0.732529
  H       1.613967     -1.094236     -1.800044
  H       1.666326      0.246853     -0.087948
  H      -0.717406     -0.021325     -0.554993
  H      -0.626716     -1.754457     -0.259294
  H      -0.771395     -0.643195      1.089076
  O       1.449524     -1.182368     -2.756599
  H       0.496075     -1.369362     -2.829294
17
Coordinates from ORCA-job IRC_IRC_Full E -268.805036200800
  C       2.351007     -3.974364      1.897303
  C       1.488539     -2.940747      1.185898
  C       1.999984     -1.729397      0.699377
  C       1.200156     -0.681848      0.207536
  C      -0.319249     -0.782287      0.107770
  H       3.388102     -3.659459      1.913306
  H       2.288515     -4.947482      1.417037
  H       2.012887     -4.091403      2.924850
  H       0.427894     -3.131185      1.130406
  H       3.070769     -1.581807      0.727577
  H       1.607703     -1.089418     -1.789936
  H       1.666709      0.245731     -0.090540
  H      -0.718015     -0.022753     -0.556195
  H      -0.628356     -1.755725     -0.260016
  H      -0.766922     -0.643691      1.088648
  O       1.450758     -1.181944     -2.747914
  H       0.497710     -1.368422     -2.826387
17
Coordinates from ORCA-job IRC_IRC_Full E -268.804789635425
  C       2.350491     -3.973538      1.897502
  C       1.488582     -2.941214      1.183995
  C       2.000781     -1.730775      0.695794
  C       1.200852     -0.683446      0.203871
  C      -0.318685     -0.783567      0.105981
  H       3.387447     -3.658173      1.914161
  H       2.288720     -4.947143      1.418171
  H       2.011356     -4.089451      2.924849
  H       0.427914     -3.130859      1.128612
  H       3.071706     -1.583585      0.723482
  H       1.602153     -1.085419     -1.782115
  H       1.667044      0.244860     -0.092642
  H      -0.718595     -0.023972     -0.557289
  H      -0.629983     -1.756752     -0.260686
  H      -0.762677     -0.644101      1.088245
  O       1.452615     -1.181339     -2.739280
  H       0.498470     -1.367728     -2.823931
17
Coordinates from ORCA-job IRC_IRC_Full E -268.804625274003
  C       2.350027     -3.972940      1.897574
  C       1.488487     -2.942066      1.183100
  C       2.001015     -1.731754      0.693553
  C       1.200735     -0.684311      0.201307
  C      -0.318635     -0.784421      0.104785
  H       3.387062     -3.657374      1.914686
  H       2.288820     -4.946774      1.418880
  H       2.010452     -4.088225      2.924739
  H       0.428085     -3.130542      1.127483
  H       3.072837     -1.584606      0.721000
  H       1.598717     -1.082876     -1.776662
  H       1.667400      0.244483     -0.093940
  H      -0.718792     -0.024952     -0.557805
  H      -0.631000     -1.757169     -0.261052
  H      -0.759694     -0.644382      1.087758
  O       1.453403     -1.181068     -2.734359
  H       0.499270     -1.367223     -2.822326
17
Coordinates from ORCA-job IRC_IRC_Full E -268.804467639719
  C       2.349387     -3.972310      1.897487
  C       1.488159     -2.943768      1.182949
  C       2.000684     -1.732754      0.691916
  C       1.199521     -0.684612      0.199037
  C      -0.319146     -0.785115      0.103830
  H       3.386835     -3.656794      1.915090
  H       2.288876     -4.946265      1.419453
  H       2.009836     -4.087270      2.924458
  H       0.428572     -3.130100      1.126602
  H       3.074734     -1.585228      0.719218
  H       1.596132     -1.080962     -1.772396
  H       1.667964      0.244493     -0.094954
  H      -0.718573     -0.026121     -0.557816
  H      -0.631610     -1.757024     -0.261172
  H      -0.757044     -0.644653      1.086912
  O       1.454222     -1.180832     -2.730778
  H       0.499642     -1.366885     -2.821114
17
Coordinates from ORCA-job IRC_IRC_Full E -268.803133753276
  C       2.348484     -3.969042      1.899153
  C       1.489015     -2.940836      1.176011
  C       2.004974     -1.738660      0.677141
  C       1.205317     -0.694532      0.178621
  C      -0.314835     -0.791348      0.092124
  H       3.384624     -3.652201      1.917840
  H       2.287692     -4.943073      1.421034
  H       2.006085     -4.081787      2.925845
  H       0.427438     -3.129130      1.121397
  H       3.074465     -1.590484      0.707528
  H       1.573950     -1.066851     -1.738190
  H       1.666832      0.241616     -0.097155
  H      -0.724949     -0.030053     -0.564354
  H      -0.646400     -1.762131     -0.266218
  H      -0.728836     -0.645531      1.085858
  O       1.457154     -1.179052     -2.698125
  H       0.507180     -1.363105     -2.809786
17
Coordinates from ORCA-job IRC_IRC_Full E -268.801211700314
  C       2.346588     -3.964533      1.900642
  C       1.488725     -2.942081      1.172957
  C       2.006523     -1.744944      0.662418
  C       1.207287     -0.704996      0.154195
  C      -0.313186     -0.798067      0.077944
  H       3.383958     -3.648876      1.920317
  H       2.285125     -4.937492      1.420700
  H       2.004329     -4.078082      2.927335
  H       0.427938     -3.127138      1.117522
  H       3.077072     -1.593621      0.700305
  H       1.552974     -1.055181     -1.705533
  H       1.665289      0.240729     -0.094892
  H      -0.732300     -0.034351     -0.569489
  H      -0.662683     -1.765146     -0.271320
  H      -0.693817     -0.645655      1.082329
  O       1.461108     -1.177040     -2.668025
  H       0.513262     -1.359729     -2.798686
17
Coordinates from ORCA-job IRC_IRC_Full E -268.798629571457
  C       2.346743     -3.961040      1.903152
  C       1.489352     -2.938986      1.170214
  C       2.008977     -1.753444      0.647506
  C       1.209613     -0.715857      0.128309
  C      -0.310489     -0.803290      0.063270
  H       3.383766     -3.646841      1.922064
  H       2.281928     -4.930808      1.419451
  H       2.003305     -4.076001      2.929186
  H       0.427762     -3.125290      1.114578
  H       3.076696     -1.595780      0.696913
  H       1.532874     -1.046239     -1.677371
  H       1.661453      0.238714     -0.089456
  H      -0.742153     -0.035847     -0.574067
  H      -0.678948     -1.769257     -0.275955
  H      -0.656978     -0.645183      1.076814
  O       1.463810     -1.174819     -2.638896
  H       0.520481     -1.356233     -2.786990
17
Coordinates from ORCA-job IRC_IRC_Full E -268.795204426486
  C       2.345390     -3.955835      1.904445
  C       1.489415     -2.937140      1.172053
  C       2.010266     -1.759872      0.630847
  C       1.211490     -0.730671      0.094820
  C      -0.309235     -0.807412      0.046535
  H       3.384617     -3.645978      1.923247
  H       2.279129     -4.924922      1.418147
  H       2.002703     -4.074960      2.930281
  H       0.429892     -3.122928      1.111985
  H       3.076648     -1.597705      0.697052
  H       1.513564     -1.038764     -1.648262
  H       1.656635      0.237166     -0.081199
  H      -0.751994     -0.036061     -0.576224
  H      -0.691085     -1.771130     -0.278102
  H      -0.622954     -0.644472      1.070973
  O       1.468085     -1.172279     -2.612143
  H       0.525625     -1.353237     -2.775733
17
Coordinates from ORCA-job IRC_IRC_Full E -268.790940772968
  C       2.345191     -3.953805      1.905939
  C       1.492013     -2.928839      1.172610
  C       2.009648     -1.766566      0.619578
  C       1.215284     -0.742897      0.051029
  C      -0.306502     -0.809859      0.037231
  H       3.384727     -3.645720      1.923742
  H       2.277477     -4.920988      1.417578
  H       2.002390     -4.074604      2.930826
  H       0.430985     -3.121786      1.110188
  H       3.076033     -1.599872      0.698935
  H       1.498689     -1.032644     -1.620962
  H       1.650416      0.232787     -0.071512
  H      -0.760411     -0.034643     -0.577616
  H      -0.698433     -1.771683     -0.278667
  H      -0.599072     -0.644252      1.064698
  O       1.466925     -1.170422     -2.587848
  H       0.532831     -1.350410     -2.767029
17
Coordinates from ORCA-job IRC_IRC_Full E -268.784731626921
  C       2.344725     -3.950700      1.906006
  C       1.490565     -2.927558      1.175525
  C       2.011628     -1.766945      0.615053
  C       1.218965     -0.759197     -0.007079
  C      -0.304886     -0.809202      0.027978
  H       3.384739     -3.645944      1.924028
  H       2.276598     -4.919691      1.416972
  H       2.002092     -4.074438      2.931057
  H       0.434914     -3.120210      1.109258
  H       3.075138     -1.602329      0.700628
  H       1.489455     -1.027280     -1.595185
  H       1.646823      0.233647     -0.061085
  H      -0.764522     -0.035170     -0.576404
  H      -0.700733     -1.770466     -0.277836
  H      -0.588229     -0.643718      1.065247
  O       1.468841     -1.167073     -2.560724
  H       0.532079     -1.349925     -2.764718
17
Coordinates from ORCA-job IRC_IRC_Full E -268.775518898462
  C       2.344580     -3.951302      1.906427
  C       1.495078     -2.918152      1.172816
  C       2.010615     -1.778800      0.621078
  C       1.222989     -0.760571     -0.055144
  C      -0.304299     -0.809228      0.030951
  H       3.384684     -3.645853      1.924048
  H       2.276467     -4.918884      1.417111
  H       2.002148     -4.074484      2.931186
  H       0.434288     -3.120304      1.108992
  H       3.075542     -1.602838      0.701227
  H       1.484026     -1.019720     -1.549833
  H       1.643280      0.230949     -0.054593
  H      -0.766418     -0.034375     -0.576893
  H      -0.701731     -1.770331     -0.277822
  H      -0.583730     -0.643958      1.062503
  O       1.471428     -1.168172     -2.569070
  H       0.529243     -1.350181     -2.764263
17
Coordinates from ORCA-job IRC_IRC_Full E -268.752021452835
  C       2.344138     -3.950029      1.906320
  C       1.495001     -2.916623      1.174088
  C       2.011848     -1.782208      0.625415
  C       1.229689     -0.770268     -0.123667
  C      -0.303291     -0.808012      0.028110
  H       3.384481     -3.646061      1.924114
  H       2.276311     -4.918807      1.416918
  H       2.002143     -4.074381      2.930900
  H       0.437008     -3.119253      1.108828
  H       3.075251     -1.604289      0.702215
  H       1.475675     -1.004877     -1.454406
  H       1.640450      0.231308     -0.045611
  H      -0.767281     -0.035220     -0.575448
  H      -0.701521     -1.769005     -0.276891
  H      -0.582420     -0.643602      1.065037
  O       1.480776     -1.173325     -2.612739
  H       0.519932     -1.351548     -2.764459
17
Coordinates from ORCA-job IRC_IRC_Full E -268.749948029301
  C       2.344128     -3.950040      1.906304
  C       1.495188     -2.916234      1.173953
  C       2.011867     -1.782900      0.626101
  C       1.229937     -0.770289     -0.126573
  C      -0.303329     -0.807967      0.028364
  H       3.384444     -3.646078      1.924117
  H       2.276362     -4.918807      1.416987
  H       2.002176     -4.074379      2.930855
  H       0.437210     -3.119104      1.108943
  H       3.075147     -1.604457      0.702209
  H       1.471447     -0.997420     -1.407420
  H       1.639112      0.231327     -0.040975
  H      -0.767207     -0.035312     -0.575358
  H      -0.701353     -1.768901     -0.276871
  H      -0.582709     -0.643705      1.064895
  O       1.480972     -1.173564     -2.614477
  H       0.517469     -1.351657     -2.763395
17
Coordinates from ORCA-job IRC_IRC_Full E -268.751753531132
  C       2.344117     -3.950050      1.906289
  C       1.495375     -2.915844      1.173817
  C       2.011885     -1.783592      0.626787
  C       1.230185     -0.770309     -0.129479
  C      -0.303367     -0.807922      0.028619
  H       3.384407     -3.646096      1.924120
  H       2.276412     -4.918806      1.417056
  H       2.002209     -4.074377      2.930810
  H       0.437413     -3.118954      1.109058
  H       3.075043     -1.604625      0.702203
  H       1.467218     -0.989962     -1.360433
  H       1.637774      0.231346     -0.036339
  H      -0.767134     -0.035404     -0.575267
  H      -0.701186     -1.768797     -0.276852
  H      -0.582998     -0.643807      1.064754
  O       1.481168     -1.173803     -2.616214
  H       0.515005     -1.351765     -2.762331
17
Coordinates from ORCA-job IRC_IRC_Full E -268.766165383153
  C       2.343651     -3.948021      1.906263
  C       1.493382     -2.918106      1.177354
  C       2.011480     -1.779467      0.623268
  C       1.235831     -0.776425     -0.158558
  C      -0.300165     -0.807315      0.020331
  H       3.384117     -3.646476      1.924245
  H       2.276106     -4.918644      1.416730
  H       2.002174     -4.074211      2.930383
  H       0.441866     -3.117269      1.108632
  H       3.073988     -1.606923      0.703846
  H       1.462026     -0.976385     -1.273805
  H       1.634036      0.228861     -0.028492
  H      -0.768406     -0.036535     -0.573348
  H      -0.701011     -1.766945     -0.275633
  H      -0.581190     -0.643211      1.068228
  O       1.488576     -1.182130     -2.678134
  H       0.507064     -1.353570     -2.764713
17
Coordinates from ORCA-job IRC_IRC_Full E -268.773880689308
  C       2.343662     -3.949233      1.906320
  C       1.499779     -2.905935      1.172440
  C       2.011117     -1.796450      0.635411
  C       1.234553     -0.769731     -0.176219
  C      -0.300350     -0.806905      0.028558
  H       3.384161     -3.646325      1.924284
  H       2.276082     -4.917832      1.417044
  H       2.002246     -4.074261      2.930657
  H       0.439948     -3.117638      1.108621
  H       3.073896     -1.607090      0.703839
  H       1.460787     -0.970548     -1.234809
  H       1.631483      0.227492     -0.022517
  H      -0.769198     -0.035457     -0.574566
  H      -0.701283     -1.767509     -0.276344
  H      -0.578220     -0.643893      1.063106
  O       1.488842     -1.187331     -2.712660
  H       0.506021     -1.354125     -2.766566
17
Coordinates from ORCA-job IRC_IRC_Full E -268.779445414120
  C       2.343157     -3.946989      1.905835
  C       1.499437     -2.906164      1.174628
  C       2.010455     -1.796861      0.637383
  C       1.233097     -0.769712     -0.164694
  C      -0.300261     -0.806081      0.024956
  H       3.384260     -3.646561      1.924574
  H       2.275425     -4.916803      1.416636
  H       2.002025     -4.073884      2.930475
  H       0.443795     -3.115558      1.108242
  H       3.073051     -1.609389      0.705175
  H       1.462904     -0.965296     -1.196748
  H       1.628096      0.228288     -0.010581
  H      -0.770202     -0.036069     -0.573592
  H      -0.700731     -1.766348     -0.276049
  H      -0.574266     -0.643591      1.063728
  O       1.491429     -1.196100     -2.772570
  H       0.501855     -1.355650     -2.770800
17
Coordinates from ORCA-job IRC_IRC_Full E -268.783414026389
  C       2.343849     -3.947339      1.906118
  C       1.501574     -2.905018      1.176780
  C       2.010784     -1.799227      0.647759
  C       1.231180     -0.765658     -0.147564
  C      -0.301853     -0.805662      0.029569
  H       3.384272     -3.646539      1.924873
  H       2.274467     -4.914959      1.416208
  H       2.001678     -4.073135      2.930113
  H       0.444676     -3.113535      1.108442
  H       3.072155     -1.612129      0.707025
  H       1.469692     -0.963254     -1.182722
  H       1.623872      0.231851      0.009889
  H      -0.770957     -0.035199     -0.573793
  H      -0.699962     -1.766392     -0.276464
  H      -0.571875     -0.643387      1.063780
  O       1.489222     -1.206012     -2.835823
  H       0.500750     -1.357177     -2.777592
17
Coordinates from ORCA-job IRC_IRC_Full E -268.786486863008
  C       2.344286     -3.948024      1.907187
  C       1.501640     -2.905009      1.181436
  C       2.009365     -1.797480      0.657790
  C       1.233570     -0.762498     -0.141891
  C      -0.301327     -0.805472      0.031305
  H       3.385067     -3.646625      1.925347
  H       2.273505     -4.914840      1.415172
  H       2.001446     -4.072915      2.930652
  H       0.445653     -3.111461      1.109903
  H       3.073474     -1.614969      0.711606
  H       1.477677     -0.958304     -1.171447
  H       1.617930      0.234656      0.036920
  H      -0.770426     -0.035211     -0.571933
  H      -0.698700     -1.766067     -0.275722
  H      -0.573713     -0.642809      1.068604
  O       1.485412     -1.216204     -2.900178
  H       0.498665     -1.359540     -2.788155
17
Coordinates from ORCA-job IRC_IRC_Full E -268.788883330654
  C       2.344460     -3.948494      1.908538
  C       1.501771     -2.902928      1.186531
  C       2.010521     -1.797369      0.665419
  C       1.235023     -0.760724     -0.133325
  C      -0.301772     -0.805757      0.035055
  H       3.385178     -3.647539      1.926136
  H       2.272559     -4.914483      1.414692
  H       2.001990     -4.074205      2.932225
  H       0.445325     -3.109949      1.113006
  H       3.073536     -1.617296      0.719311
  H       1.487865     -0.948269     -1.167323
  H       1.612026      0.237565      0.065399
  H      -0.768870     -0.035540     -0.568693
  H      -0.696399     -1.765196     -0.273921
  H      -0.575085     -0.643272      1.070022
  O       1.478157     -1.226814     -2.964043
  H       0.497240     -1.362502     -2.802429
17
Coordinates from ORCA-job IRC_IRC_Full E -268.790727080395
  C       2.344544     -3.949309      1.911300
  C       1.500530     -2.903316      1.191896
  C       2.010780     -1.797068      0.670167
  C       1.237862     -0.756777     -0.128255
  C      -0.297653     -0.806286      0.036638
  H       3.385014     -3.648817      1.927313
  H       2.271046     -4.913460      1.414528
  H       2.003122     -4.076884      2.934763
  H       0.445347     -3.108043      1.117685
  H       3.074512     -1.618886      0.729009
  H       1.497232     -0.931272     -1.161939
  H       1.606071      0.237644      0.093079
  H      -0.767380     -0.034953     -0.565878
  H      -0.694950     -1.767378     -0.272650
  H      -0.576557     -0.644346      1.073669
  O       1.469094     -1.237244     -3.024654
  H       0.494911     -1.366375     -2.820073
17
Coordinates from ORCA-job IRC_IRC_Full E -268.791188869238
  C       2.344566     -3.949018      1.911962
  C       1.499566     -2.903351      1.193447
  C       2.012110     -1.797354      0.671319
  C       1.238148     -0.756413     -0.125775
  C      -0.298345     -0.806699      0.037171
  H       3.384896     -3.649352      1.927920
  H       2.270479     -4.913500      1.414558
  H       2.003458     -4.077992      2.935981
  H       0.445557     -3.107559      1.119376
  H       3.074063     -1.619393      0.731901
  H       1.500097     -0.924858     -1.161612
  H       1.605115      0.238777      0.101396
  H      -0.766349     -0.035613     -0.564633
  H      -0.693596     -1.767114     -0.272219
  H      -0.576134     -0.645206      1.073614
  O       1.465992     -1.240310     -3.041711
  H       0.493903     -1.367817     -2.826099
17
Coordinates from ORCA-job IRC_IRC_Full E -268.791414253311
  C       2.344168     -3.949429      1.912481
  C       1.500446     -2.902531      1.193868
  C       2.011468     -1.798088      0.672048
  C       1.238817     -0.755951     -0.125200
  C      -0.298300     -0.807025      0.037909
  H       3.385001     -3.649482      1.928179
  H       2.270262     -4.913330      1.414690
  H       2.003693     -4.078473      2.936373
  H       0.444894     -3.107498      1.120123
  H       3.074431     -1.619556      0.733195
  H       1.501253     -0.921793     -1.161064
  H       1.604554      0.239084      0.105165
  H      -0.766078     -0.035630     -0.564321
  H      -0.693049     -1.767219     -0.272151
  H      -0.575983     -0.645644      1.073533
  O       1.464586     -1.241690     -3.049336
  H       0.493363     -1.368518     -2.828895
17
Coordinates from ORCA-job IRC_IRC_Full E -268.791774494548
  C       2.343703     -3.949857      1.913334
  C       1.501093     -2.901797      1.194895
  C       2.010945     -1.798877      0.673085
  C       1.239761     -0.754920     -0.123857
  C      -0.297840     -0.807476      0.038687
  H       3.385065     -3.649810      1.928694
  H       2.269817     -4.913105      1.414893
  H       2.004050     -4.079358      2.937171
  H       0.444264     -3.107241      1.121526
  H       3.074860     -1.619919      0.735515
  H       1.503395     -0.916146     -1.160167
  H       1.603525      0.239499      0.112062
  H      -0.765571     -0.035744     -0.563672
  H      -0.692061     -1.767534     -0.272066
  H      -0.575798     -0.646437      1.073771
  O       1.461902     -1.244223     -3.063185
  H       0.492414     -1.369825     -2.834090
17
Coordinates from ORCA-job IRC_IRC_Full E -268.792133121956
  C       2.343625     -3.949953      1.914170
  C       1.500596     -2.901842      1.196242
  C       2.011365     -1.799033      0.673845
  C       1.240457     -0.753714     -0.122023
  C      -0.297085     -0.807813      0.038877
  H       3.384919     -3.650286      1.929303
  H       2.269276     -4.912977      1.415069
  H       2.004331     -4.080312      2.938132
  H       0.444248     -3.106810      1.123086
  H       3.074884     -1.620417      0.737914
  H       1.505735     -0.909997     -1.159351
  H       1.602463      0.239874      0.119497
  H      -0.764994     -0.035992     -0.562863
  H      -0.690927     -1.767949     -0.272021
  H      -0.575666     -0.647314      1.074402
  O       1.458903     -1.246951     -3.077899
  H       0.491395     -1.371284     -2.839783
17
Coordinates from ORCA-job IRC_IRC_Full E -268.792465568204
  C       2.343335     -3.950274      1.915061
  C       1.500807     -2.901392      1.197372
  C       2.011323     -1.799520      0.674706
  C       1.241370     -0.752687     -0.120571
  C      -0.296560     -0.808179      0.039663
  H       3.384848     -3.650711      1.929934
  H       2.268750     -4.912794      1.415329
  H       2.004595     -4.081224      2.939035
  H       0.443783     -3.106481      1.124624
  H       3.075128     -1.620915      0.740131
  H       1.507984     -0.903727     -1.158277
  H       1.601502      0.240445      0.126875
  H      -0.764479     -0.036174     -0.562167
  H      -0.689621     -1.768372     -0.272113
  H      -0.575428     -0.648336      1.074619
  O       1.455901     -1.249619     -3.092111
  H       0.490286     -1.372809     -2.845513
17
Coordinates from ORCA-job IRC_IRC_Full E -268.792781714471
  C       2.343173     -3.950368      1.915907
  C       1.500339     -2.901425      1.198656
  C       2.011698     -1.799710      0.675352
  C       1.242092     -0.751268     -0.118595
  C      -0.295707     -0.808533      0.039749
  H       3.384707     -3.651205      1.930628
  H       2.268180     -4.912693      1.415584
  H       2.004782     -4.082127      2.940001
  H       0.443740     -3.106031      1.126218
  H       3.075269     -1.621481      0.742246
  H       1.510301     -0.897305     -1.157366
  H       1.600511      0.240826      0.134327
  H      -0.763944     -0.036455     -0.561358
  H      -0.688204     -1.768839     -0.272260
  H      -0.575299     -0.649404      1.075274
  O       1.452755     -1.252329     -3.106334
  H       0.489132     -1.374425     -2.851432
17
Coordinates from ORCA-job IRC_IRC_Full E -268.793076997418
  C       2.342922     -3.950661      1.916813
  C       1.500457     -2.901016      1.199744
  C       2.011838     -1.800110      0.676104
  C       1.243035     -0.750176     -0.117054
  C      -0.295166     -0.808898      0.040520
  H       3.384558     -3.651672      1.931340
  H       2.267615     -4.912544      1.415914
  H       2.004933     -4.082976      2.940904
  H       0.443307     -3.105653      1.127801
  H       3.075480     -1.622084      0.744177
  H       1.512551     -0.890751     -1.156134
  H       1.599635      0.241494      0.141809
  H      -0.763453     -0.036678     -0.560643
  H      -0.686597     -1.769294     -0.272544
  H      -0.575073     -0.650636      1.075451
  O       1.449590     -1.255009     -3.120214
  H       0.487893     -1.376108     -2.857390
17
Coordinates from ORCA-job IRC_IRC_Full E -268.793358130104
  C       2.342623     -3.950768      1.917641
  C       1.500120     -2.900965      1.200950
  C       2.012074     -1.800401      0.676690
  C       1.243801     -0.748562     -0.114971
  C      -0.294187     -0.809258      0.040611
  H       3.384439     -3.652169      1.932112
  H       2.267020     -4.912464      1.416253
  H       2.005006     -4.083794      2.941850
  H       0.443227     -3.105145      1.129426
  H       3.075806     -1.622731      0.745979
  H       1.514864     -0.884076     -1.155037
  H       1.598694      0.241901      0.149316
  H      -0.762957     -0.036971     -0.559831
  H      -0.684910     -1.769837     -0.272912
  H      -0.574999     -0.651926      1.076085
  O       1.446300     -1.257730     -3.134060
  H       0.486603     -1.377877     -2.863506
17
Coordinates from ORCA-job IRC_IRC_Full E -268.793620664613
  C       2.342432     -3.951043      1.918562
  C       1.500167     -2.900601      1.201990
  C       2.012463     -1.800681      0.677354
  C       1.244795     -0.747456     -0.113239
  C      -0.293690     -0.809674      0.041313
  H       3.384193     -3.652674      1.932897
  H       2.266414     -4.912353      1.416651
  H       2.005016     -4.084539      2.942718
  H       0.442815     -3.104681      1.131045
  H       3.075979     -1.623465      0.747574
  H       1.517104     -0.877179     -1.153667
  H       1.597891      0.242630      0.156855
  H      -0.762454     -0.037245     -0.559071
  H      -0.682994     -1.770276     -0.273392
  H      -0.574838     -0.653389      1.076240
  O       1.443001     -1.260474     -3.147597
  H       0.485230     -1.379671     -2.869635
17
Coordinates from ORCA-job IRC_IRC_Full E -268.793868865665
  C       2.342015     -3.951144      1.919348
  C       1.499898     -2.900521      1.203134
  C       2.012620     -1.801028      0.677861
  C       1.245558     -0.745649     -0.111204
  C      -0.292549     -0.810001      0.041527
  H       3.384094     -3.653179      1.933739
  H       2.265793     -4.912314      1.417062
  H       2.004943     -4.085245      2.943645
  H       0.442749     -3.104070      1.132695
  H       3.076526     -1.624201      0.749030
  H       1.519398     -0.870305     -1.152295
  H       1.597002      0.243095      0.164442
  H      -0.761982     -0.037530     -0.558264
  H      -0.681073     -1.770944     -0.274025
  H      -0.574868     -0.654935      1.076808
  O       1.439594     -1.263237     -3.161026
  H       0.483808     -1.381562     -2.875882
17
Coordinates from ORCA-job IRC_IRC_Full E -268.794103543625
  C       2.341831     -3.951407      1.920270
  C       1.499956     -2.900088      1.204074
  C       2.013172     -1.801233      0.678369
  C       1.246609     -0.744375     -0.109096
  C      -0.292107     -0.810486      0.042029
  H       3.383774     -3.653720      1.934589
  H       2.265147     -4.912234      1.417530
  H       2.004802     -4.085868      2.944461
  H       0.442342     -3.103482      1.134354
  H       3.076715     -1.625071      0.750249
  H       1.521703     -0.863341     -1.150842
  H       1.596239      0.243914      0.172111
  H      -0.761476     -0.037858     -0.557415
  H      -0.678828     -1.771344     -0.274718
  H      -0.574820     -0.656652      1.077007
  O       1.436160     -1.266004     -3.174231
  H       0.482306     -1.383523     -2.882144
17
Coordinates from ORCA-job IRC_IRC_Full E -268.794324258895
  C       2.341369     -3.951511      1.921034
  C       1.499754     -2.900005      1.205151
  C       2.013388     -1.801560      0.678925
  C       1.247434     -0.742574     -0.107171
  C      -0.290874     -0.810846      0.042386
  H       3.383641     -3.654243      1.935487
  H       2.264487     -4.912228      1.418004
  H       2.004568     -4.086434      2.945329
  H       0.442250     -3.102739      1.136024
  H       3.077439     -1.625897      0.751319
  H       1.523912     -0.856131     -1.149173
  H       1.595384      0.244416      0.179707
  H      -0.761006     -0.038121     -0.556603
  H      -0.676675     -1.772060     -0.275615
  H      -0.574985     -0.658477      1.077486
  O       1.432680     -1.268870     -3.187250
  H       0.480759     -1.385490     -2.888444
