17
Coordinates from ORCA-job IRC_IRC_F E -268.751753531132
  C       2.344117     -3.950050      1.906289
  C       1.495375     -2.915844      1.173817
  C       2.011885     -1.783592      0.626787
  C       1.230185     -0.770309     -0.129479
  C      -0.303367     -0.807922      0.028619
  H       3.384407     -3.646096      1.924120
  H       2.276412     -4.918806      1.417056
  H       2.002209     -4.074377      2.930810
  H       0.437413     -3.118954      1.109058
  H       3.075043     -1.604625      0.702203
  H       1.467218     -0.989962     -1.360433
  H       1.637774      0.231346     -0.036339
  H      -0.767134     -0.035404     -0.575267
  H      -0.701186     -1.768797     -0.276852
  H      -0.582998     -0.643807      1.064754
  O       1.481168     -1.173803     -2.616214
  H       0.515005     -1.351765     -2.762331
17
Coordinates from ORCA-job IRC_IRC_F E -268.766165383153
  C       2.343651     -3.948021      1.906263
  C       1.493382     -2.918106      1.177354
  C       2.011480     -1.779467      0.623268
  C       1.235831     -0.776425     -0.158558
  C      -0.300165     -0.807315      0.020331
  H       3.384117     -3.646476      1.924245
  H       2.276106     -4.918644      1.416730
  H       2.002174     -4.074211      2.930383
  H       0.441866     -3.117269      1.108632
  H       3.073988     -1.606923      0.703846
  H       1.462026     -0.976385     -1.273805
  H       1.634036      0.228861     -0.028492
  H      -0.768406     -0.036535     -0.573348
  H      -0.701011     -1.766945     -0.275633
  H      -0.581190     -0.643211      1.068228
  O       1.488576     -1.182130     -2.678134
  H       0.507064     -1.353570     -2.764713
17
Coordinates from ORCA-job IRC_IRC_F E -268.773880689308
  C       2.343662     -3.949233      1.906320
  C       1.499779     -2.905935      1.172440
  C       2.011117     -1.796450      0.635411
  C       1.234553     -0.769731     -0.176219
  C      -0.300350     -0.806905      0.028558
  H       3.384161     -3.646325      1.924284
  H       2.276082     -4.917832      1.417044
  H       2.002246     -4.074261      2.930657
  H       0.439948     -3.117638      1.108621
  H       3.073896     -1.607090      0.703839
  H       1.460787     -0.970548     -1.234809
  H       1.631483      0.227492     -0.022517
  H      -0.769198     -0.035457     -0.574566
  H      -0.701283     -1.767509     -0.276344
  H      -0.578220     -0.643893      1.063106
  O       1.488842     -1.187331     -2.712660
  H       0.506021     -1.354125     -2.766566
17
Coordinates from ORCA-job IRC_IRC_F E -268.779445414120
  C       2.343157     -3.946989      1.905835
  C       1.499437     -2.906164      1.174628
  C       2.010455     -1.796861      0.637383
  C       1.233097     -0.769712     -0.164694
  C      -0.300261     -0.806081      0.024956
  H       3.384260     -3.646561      1.924574
  H       2.275425     -4.916803      1.416636
  H       2.002025     -4.073884      2.930475
  H       0.443795     -3.115558      1.108242
  H       3.073051     -1.609389      0.705175
  H       1.462904     -0.965296     -1.196748
  H       1.628096      0.228288     -0.010581
  H      -0.770202     -0.036069     -0.573592
  H      -0.700731     -1.766348     -0.276049
  H      -0.574266     -0.643591      1.063728
  O       1.491429     -1.196100     -2.772570
  H       0.501855     -1.355650     -2.770800
17
Coordinates from ORCA-job IRC_IRC_F E -268.783414026389
  C       2.343849     -3.947339      1.906118
  C       1.501574     -2.905018      1.176780
  C       2.010784     -1.799227      0.647759
  C       1.231180     -0.765658     -0.147564
  C      -0.301853     -0.805662      0.029569
  H       3.384272     -3.646539      1.924873
  H       2.274467     -4.914959      1.416208
  H       2.001678     -4.073135      2.930113
  H       0.444676     -3.113535      1.108442
  H       3.072155     -1.612129      0.707025
  H       1.469692     -0.963254     -1.182722
  H       1.623872      0.231851      0.009889
  H      -0.770957     -0.035199     -0.573793
  H      -0.699962     -1.766392     -0.276464
  H      -0.571875     -0.643387      1.063780
  O       1.489222     -1.206012     -2.835823
  H       0.500750     -1.357177     -2.777592
17
Coordinates from ORCA-job IRC_IRC_F E -268.786486863008
  C       2.344286     -3.948024      1.907187
  C       1.501640     -2.905009      1.181436
  C       2.009365     -1.797480      0.657790
  C       1.233570     -0.762498     -0.141891
  C      -0.301327     -0.805472      0.031305
  H       3.385067     -3.646625      1.925347
  H       2.273505     -4.914840      1.415172
  H       2.001446     -4.072915      2.930652
  H       0.445653     -3.111461      1.109903
  H       3.073474     -1.614969      0.711606
  H       1.477677     -0.958304     -1.171447
  H       1.617930      0.234656      0.036920
  H      -0.770426     -0.035211     -0.571933
  H      -0.698700     -1.766067     -0.275722
  H      -0.573713     -0.642809      1.068604
  O       1.485412     -1.216204     -2.900178
  H       0.498665     -1.359540     -2.788155
17
Coordinates from ORCA-job IRC_IRC_F E -268.788883330654
  C       2.344460     -3.948494      1.908538
  C       1.501771     -2.902928      1.186531
  C       2.010521     -1.797369      0.665419
  C       1.235023     -0.760724     -0.133325
  C      -0.301772     -0.805757      0.035055
  H       3.385178     -3.647539      1.926136
  H       2.272559     -4.914483      1.414692
  H       2.001990     -4.074205      2.932225
  H       0.445325     -3.109949      1.113006
  H       3.073536     -1.617296      0.719311
  H       1.487865     -0.948269     -1.167323
  H       1.612026      0.237565      0.065399
  H      -0.768870     -0.035540     -0.568693
  H      -0.696399     -1.765196     -0.273921
  H      -0.575085     -0.643272      1.070022
  O       1.478157     -1.226814     -2.964043
  H       0.497240     -1.362502     -2.802429
17
Coordinates from ORCA-job IRC_IRC_F E -268.790727080395
  C       2.344544     -3.949309      1.911300
  C       1.500530     -2.903316      1.191896
  C       2.010780     -1.797068      0.670167
  C       1.237862     -0.756777     -0.128255
  C      -0.297653     -0.806286      0.036638
  H       3.385014     -3.648817      1.927313
  H       2.271046     -4.913460      1.414528
  H       2.003122     -4.076884      2.934763
  H       0.445347     -3.108043      1.117685
  H       3.074512     -1.618886      0.729009
  H       1.497232     -0.931272     -1.161939
  H       1.606071      0.237644      0.093079
  H      -0.767380     -0.034953     -0.565878
  H      -0.694950     -1.767378     -0.272650
  H      -0.576557     -0.644346      1.073669
  O       1.469094     -1.237244     -3.024654
  H       0.494911     -1.366375     -2.820073
17
Coordinates from ORCA-job IRC_IRC_F E -268.791188869238
  C       2.344566     -3.949018      1.911962
  C       1.499566     -2.903351      1.193447
  C       2.012110     -1.797354      0.671319
  C       1.238148     -0.756413     -0.125775
  C      -0.298345     -0.806699      0.037171
  H       3.384896     -3.649352      1.927920
  H       2.270479     -4.913500      1.414558
  H       2.003458     -4.077992      2.935981
  H       0.445557     -3.107559      1.119376
  H       3.074063     -1.619393      0.731901
  H       1.500097     -0.924858     -1.161612
  H       1.605115      0.238777      0.101396
  H      -0.766349     -0.035613     -0.564633
  H      -0.693596     -1.767114     -0.272219
  H      -0.576134     -0.645206      1.073614
  O       1.465992     -1.240310     -3.041711
  H       0.493903     -1.367817     -2.826099
17
Coordinates from ORCA-job IRC_IRC_F E -268.791414253311
  C       2.344168     -3.949429      1.912481
  C       1.500446     -2.902531      1.193868
  C       2.011468     -1.798088      0.672048
  C       1.238817     -0.755951     -0.125200
  C      -0.298300     -0.807025      0.037909
  H       3.385001     -3.649482      1.928179
  H       2.270262     -4.913330      1.414690
  H       2.003693     -4.078473      2.936373
  H       0.444894     -3.107498      1.120123
  H       3.074431     -1.619556      0.733195
  H       1.501253     -0.921793     -1.161064
  H       1.604554      0.239084      0.105165
  H      -0.766078     -0.035630     -0.564321
  H      -0.693049     -1.767219     -0.272151
  H      -0.575983     -0.645644      1.073533
  O       1.464586     -1.241690     -3.049336
  H       0.493363     -1.368518     -2.828895
17
Coordinates from ORCA-job IRC_IRC_F E -268.791774494548
  C       2.343703     -3.949857      1.913334
  C       1.501093     -2.901797      1.194895
  C       2.010945     -1.798877      0.673085
  C       1.239761     -0.754920     -0.123857
  C      -0.297840     -0.807476      0.038687
  H       3.385065     -3.649810      1.928694
  H       2.269817     -4.913105      1.414893
  H       2.004050     -4.079358      2.937171
  H       0.444264     -3.107241      1.121526
  H       3.074860     -1.619919      0.735515
  H       1.503395     -0.916146     -1.160167
  H       1.603525      0.239499      0.112062
  H      -0.765571     -0.035744     -0.563672
  H      -0.692061     -1.767534     -0.272066
  H      -0.575798     -0.646437      1.073771
  O       1.461902     -1.244223     -3.063185
  H       0.492414     -1.369825     -2.834090
17
Coordinates from ORCA-job IRC_IRC_F E -268.792133121956
  C       2.343625     -3.949953      1.914170
  C       1.500596     -2.901842      1.196242
  C       2.011365     -1.799033      0.673845
  C       1.240457     -0.753714     -0.122023
  C      -0.297085     -0.807813      0.038877
  H       3.384919     -3.650286      1.929303
  H       2.269276     -4.912977      1.415069
  H       2.004331     -4.080312      2.938132
  H       0.444248     -3.106810      1.123086
  H       3.074884     -1.620417      0.737914
  H       1.505735     -0.909997     -1.159351
  H       1.602463      0.239874      0.119497
  H      -0.764994     -0.035992     -0.562863
  H      -0.690927     -1.767949     -0.272021
  H      -0.575666     -0.647314      1.074402
  O       1.458903     -1.246951     -3.077899
  H       0.491395     -1.371284     -2.839783
17
Coordinates from ORCA-job IRC_IRC_F E -268.792465568204
  C       2.343335     -3.950274      1.915061
  C       1.500807     -2.901392      1.197372
  C       2.011323     -1.799520      0.674706
  C       1.241370     -0.752687     -0.120571
  C      -0.296560     -0.808179      0.039663
  H       3.384848     -3.650711      1.929934
  H       2.268750     -4.912794      1.415329
  H       2.004595     -4.081224      2.939035
  H       0.443783     -3.106481      1.124624
  H       3.075128     -1.620915      0.740131
  H       1.507984     -0.903727     -1.158277
  H       1.601502      0.240445      0.126875
  H      -0.764479     -0.036174     -0.562167
  H      -0.689621     -1.768372     -0.272113
  H      -0.575428     -0.648336      1.074619
  O       1.455901     -1.249619     -3.092111
  H       0.490286     -1.372809     -2.845513
17
Coordinates from ORCA-job IRC_IRC_F E -268.792781714471
  C       2.343173     -3.950368      1.915907
  C       1.500339     -2.901425      1.198656
  C       2.011698     -1.799710      0.675352
  C       1.242092     -0.751268     -0.118595
  C      -0.295707     -0.808533      0.039749
  H       3.384707     -3.651205      1.930628
  H       2.268180     -4.912693      1.415584
  H       2.004782     -4.082127      2.940001
  H       0.443740     -3.106031      1.126218
  H       3.075269     -1.621481      0.742246
  H       1.510301     -0.897305     -1.157366
  H       1.600511      0.240826      0.134327
  H      -0.763944     -0.036455     -0.561358
  H      -0.688204     -1.768839     -0.272260
  H      -0.575299     -0.649404      1.075274
  O       1.452755     -1.252329     -3.106334
  H       0.489132     -1.374425     -2.851432
17
Coordinates from ORCA-job IRC_IRC_F E -268.793076997418
  C       2.342922     -3.950661      1.916813
  C       1.500457     -2.901016      1.199744
  C       2.011838     -1.800110      0.676104
  C       1.243035     -0.750176     -0.117054
  C      -0.295166     -0.808898      0.040520
  H       3.384558     -3.651672      1.931340
  H       2.267615     -4.912544      1.415914
  H       2.004933     -4.082976      2.940904
  H       0.443307     -3.105653      1.127801
  H       3.075480     -1.622084      0.744177
  H       1.512551     -0.890751     -1.156134
  H       1.599635      0.241494      0.141809
  H      -0.763453     -0.036678     -0.560643
  H      -0.686597     -1.769294     -0.272544
  H      -0.575073     -0.650636      1.075451
  O       1.449590     -1.255009     -3.120214
  H       0.487893     -1.376108     -2.857390
17
Coordinates from ORCA-job IRC_IRC_F E -268.793358130104
  C       2.342623     -3.950768      1.917641
  C       1.500120     -2.900965      1.200950
  C       2.012074     -1.800401      0.676690
  C       1.243801     -0.748562     -0.114971
  C      -0.294187     -0.809258      0.040611
  H       3.384439     -3.652169      1.932112
  H       2.267020     -4.912464      1.416253
  H       2.005006     -4.083794      2.941850
  H       0.443227     -3.105145      1.129426
  H       3.075806     -1.622731      0.745979
  H       1.514864     -0.884076     -1.155037
  H       1.598694      0.241901      0.149316
  H      -0.762957     -0.036971     -0.559831
  H      -0.684910     -1.769837     -0.272912
  H      -0.574999     -0.651926      1.076085
  O       1.446300     -1.257730     -3.134060
  H       0.486603     -1.377877     -2.863506
17
Coordinates from ORCA-job IRC_IRC_F E -268.793620664613
  C       2.342432     -3.951043      1.918562
  C       1.500167     -2.900601      1.201990
  C       2.012463     -1.800681      0.677354
  C       1.244795     -0.747456     -0.113239
  C      -0.293690     -0.809674      0.041313
  H       3.384193     -3.652674      1.932897
  H       2.266414     -4.912353      1.416651
  H       2.005016     -4.084539      2.942718
  H       0.442815     -3.104681      1.131045
  H       3.075979     -1.623465      0.747574
  H       1.517104     -0.877179     -1.153667
  H       1.597891      0.242630      0.156855
  H      -0.762454     -0.037245     -0.559071
  H      -0.682994     -1.770276     -0.273392
  H      -0.574838     -0.653389      1.076240
  O       1.443001     -1.260474     -3.147597
  H       0.485230     -1.379671     -2.869635
17
Coordinates from ORCA-job IRC_IRC_F E -268.793868865665
  C       2.342015     -3.951144      1.919348
  C       1.499898     -2.900521      1.203134
  C       2.012620     -1.801028      0.677861
  C       1.245558     -0.745649     -0.111204
  C      -0.292549     -0.810001      0.041527
  H       3.384094     -3.653179      1.933739
  H       2.265793     -4.912314      1.417062
  H       2.004943     -4.085245      2.943645
  H       0.442749     -3.104070      1.132695
  H       3.076526     -1.624201      0.749030
  H       1.519398     -0.870305     -1.152295
  H       1.597002      0.243095      0.164442
  H      -0.761982     -0.037530     -0.558264
  H      -0.681073     -1.770944     -0.274025
  H      -0.574868     -0.654935      1.076808
  O       1.439594     -1.263237     -3.161026
  H       0.483808     -1.381562     -2.875882
17
Coordinates from ORCA-job IRC_IRC_F E -268.794103543625
  C       2.341831     -3.951407      1.920270
  C       1.499956     -2.900088      1.204074
  C       2.013172     -1.801233      0.678369
  C       1.246609     -0.744375     -0.109096
  C      -0.292107     -0.810486      0.042029
  H       3.383774     -3.653720      1.934589
  H       2.265147     -4.912234      1.417530
  H       2.004802     -4.085868      2.944461
  H       0.442342     -3.103482      1.134354
  H       3.076715     -1.625071      0.750249
  H       1.521703     -0.863341     -1.150842
  H       1.596239      0.243914      0.172111
  H      -0.761476     -0.037858     -0.557415
  H      -0.678828     -1.771344     -0.274718
  H      -0.574820     -0.656652      1.077007
  O       1.436160     -1.266004     -3.174231
  H       0.482306     -1.383523     -2.882144
17
Coordinates from ORCA-job IRC_IRC_F E -268.794324258895
  C       2.341369     -3.951511      1.921034
  C       1.499754     -2.900005      1.205151
  C       2.013388     -1.801560      0.678925
  C       1.247434     -0.742574     -0.107171
  C      -0.290874     -0.810846      0.042386
  H       3.383641     -3.654243      1.935487
  H       2.264487     -4.912228      1.418004
  H       2.004568     -4.086434      2.945329
  H       0.442250     -3.102739      1.136024
  H       3.077439     -1.625897      0.751319
  H       1.523912     -0.856131     -1.149173
  H       1.595384      0.244416      0.179707
  H      -0.761006     -0.038121     -0.556603
  H      -0.676675     -1.772060     -0.275615
  H      -0.574985     -0.658477      1.077486
  O       1.432680     -1.268870     -3.187250
  H       0.480759     -1.385490     -2.888444
