15
Coordinates from ORCA-job opt E -193.891307715072
  C          -2.39584053016869      0.49997733645521      0.41640154730186
  C          -0.88172528225145      0.37390873506047      0.28122858221224
  C          -0.27109422499529     -0.73087246394017     -0.07779501143328
  C           1.23909427371076     -0.90439392421234     -0.22630979930031
  C           2.04751835983197      0.37467391401972      0.09087037485726
  H          -2.88032567993939     -0.43889150455731      0.17521849579296
  H          -2.77795852166870      1.26831763210295     -0.25083185420454
  H          -2.66848262456416      0.77977248294243      1.43078112385926
  H          -0.31677993335437      1.26626564106542      0.50227851458744
  H          -0.85420826595971     -1.61456958921165     -0.29519501564920
  H           1.45543226745823     -1.22762315987551     -1.24149209845635
  H           1.56414616852698     -1.71011533965804      0.42715608351846
  H           3.10867040002484      0.18916031471839     -0.03155125048388
  H           1.76110352987125      1.18073061081644     -0.57416902860328
  H           1.87045006347774      0.69365932427400      1.11113294600135
