15
Coordinates from ORCA-job opt E -193.888524405341
  C       2.465859      0.642324     -0.188744
  C       1.253701     -0.157609      0.156775
  C       0.076933     -0.038030     -0.433379
  C      -1.141285     -0.831957     -0.081419
  C      -2.277357      0.077943      0.385576
  H       3.275250     -0.015712     -0.505017
  H       2.253316      1.346526     -0.989426
  H       2.813927      1.195904      0.683322
  H       1.387525     -0.882548      0.950419
  H      -0.058195      0.688771     -1.225010
  H      -1.473549     -1.389856     -0.962210
  H      -0.900091     -1.551617      0.703385
  H      -3.161021     -0.508093      0.627971
  H      -1.975841      0.633073      1.271111
  H      -2.539172      0.790880     -0.393355
15
Coordinates from ORCA-job opt E -193.890602090719
  C       2.498737      0.650150     -0.194526
  C       1.258957     -0.163076      0.154475
  C       0.092277     -0.036611     -0.434695
  C      -1.151511     -0.841364     -0.079795
  C      -2.313703      0.077505      0.392952
  H       3.308470     -0.001382     -0.511642
  H       2.291528      1.352577     -0.991683
  H       2.850051      1.205264      0.670989
  H       1.380768     -0.887869      0.945952
  H      -0.032676      0.689857     -1.223457
  H      -1.477584     -1.402204     -0.949388
  H      -0.913316     -1.557299      0.694434
  H      -3.194968     -0.506599      0.630006
  H      -2.022582      0.631708      1.276716
  H      -2.574450      0.789342     -0.380338
15
Coordinates from ORCA-job opt E -193.890665550809
  C       2.497796      0.649170     -0.194268
  C       1.257230     -0.164730      0.156664
  C       0.092098     -0.032602     -0.433825
  C      -1.151067     -0.841195     -0.079560
  C      -2.311935      0.077996      0.391987
  H       3.306906     -0.002669     -0.514462
  H       2.285049      1.351455     -0.992200
  H       2.849270      1.205604      0.671093
  H       1.378556     -0.891532      0.947861
  H      -0.032976      0.695946     -1.222361
  H      -1.477455     -1.404333     -0.950386
  H      -0.909738     -1.556711      0.698591
  H      -3.193359     -0.508549      0.627891
  H      -2.019715      0.632319      1.277086
  H      -2.570658      0.789831     -0.384110
15
Coordinates from ORCA-job opt E -193.890679973831
  C       2.496517      0.648495     -0.193677
  C       1.256860     -0.167585      0.157273
  C       0.092350     -0.030920     -0.433969
  C      -1.150234     -0.840853     -0.078848
  C      -2.310894      0.078871      0.390897
  H       3.305274     -0.001868     -0.517359
  H       2.278349      1.350635     -0.990071
  H       2.847614      1.204692      0.671892
  H       1.378520     -0.896037      0.946560
  H      -0.033667      0.699483     -1.220273
  H      -1.476065     -1.406237     -0.948157
  H      -0.906412     -1.553128      0.700970
  H      -3.191914     -0.508354      0.626256
  H      -2.018494      0.633609      1.275455
  H      -2.567805      0.789198     -0.386948
15
Coordinates from ORCA-job opt E -193.890681390252
  C       2.496588      0.648168     -0.193742
  C       1.257293     -0.168749      0.157312
  C       0.092679     -0.030132     -0.433421
  C      -1.149753     -0.840407     -0.078009
  C      -2.311605      0.079066      0.390179
  H       3.305113     -0.001387     -0.519334
  H       2.276320      1.350760     -0.988965
  H       2.848252      1.203599      0.671959
  H       1.379380     -0.898543      0.945106
  H      -0.033954      0.701377     -1.218384
  H      -1.474726     -1.407278     -0.946451
  H      -0.905003     -1.551111      0.702636
  H      -3.192535     -0.508324      0.624939
  H      -2.020210      0.634334      1.274588
  H      -2.567839      0.788627     -0.388412
