2
Coordinates from ORCA-job opt E -16.569753316988
  O       0.498021      0.000000      0.000000
  H      -0.498021      0.000000      0.000000
2
Coordinates from ORCA-job opt E -16.570302495467
  O       0.484798      0.000000      0.000000
  H      -0.484798      0.000000      0.000000
2
Coordinates from ORCA-job opt E -16.570301902373
  O       0.485668      0.000000      0.000000
  H      -0.485668      0.000000      0.000000
2
Coordinates from ORCA-job opt E -16.570304323981
  O       0.485598      0.000000      0.000000
  H      -0.485598      0.000000      0.000000
