17
Coordinates from ORCA-job opt E -268.808742978874
  C           2.43177903996026     -3.93680533157614      1.44986346839057
  C           1.48896066950861     -2.81212307606110      1.03857215484553
  C           1.90173981678769     -1.47414165250911      0.94509095539408
  C           1.09432883485913     -0.38922440280962      0.55378360449790
  C          -0.37740828651210     -0.49747085425593      0.16909087939129
  H           3.41861456394283     -3.54709098366038      1.67242170315591
  H           2.52430555508095     -4.67251787407646      0.65363562710507
  H           2.05706902303870     -4.45179429430318      2.33136163013465
  H           0.46916780395062     -3.08232243139406      0.81260753701955
  H           2.93176393344377     -1.25697969263006      1.19158872095240
  H           1.70119002025738     -1.91212681003418     -1.53459856554705
  H           1.52922113317901      0.59972358706457      0.53992634867846
  H          -0.59306414429879      0.12754459646800     -0.69297477490316
  H          -0.65473045543046     -1.51715658196002     -0.06681515649180
  H          -1.01282164543376     -0.15930572102686      0.98538999501952
  O           1.53905390042352     -2.17803371719310     -2.46008470717020
  H           0.56902023724260     -2.17637376004231     -2.56013842047275
