17
Coordinates from ORCA-job opt E -268.806636807147
  C       2.355913     -3.980884      1.895373
  C       1.486961     -2.934980      1.207242
  C       1.992746     -1.716814      0.732528
  C       1.194443     -0.671933      0.231709
  C      -0.324666     -0.773025      0.118357
  H       3.394547     -3.670910      1.902624
  H       2.284095     -4.947092      1.401862
  H       2.030849     -4.113150      2.925447
  H       0.427165     -3.132259      1.149827
  H       3.061202     -1.562194      0.773276
  H       1.656001     -1.129914     -1.866149
  H       1.662261      0.254978     -0.066572
  H      -0.715539     -0.011457     -0.548374
  H      -0.623976     -1.746398     -0.256935
  H      -0.791104     -0.639219      1.092031
  O       1.441828     -1.185756     -2.816431
  H       0.485464     -1.375192     -2.847094
17
Coordinates from ORCA-job opt E -268.807215165975
  C       2.363406     -3.988228      1.875310
  C       1.478867     -2.920407      1.242104
  C       1.979967     -1.699627      0.766148
  C       1.183432     -0.660991      0.244995
  C      -0.335249     -0.761152      0.115430
  H       3.404900     -3.688242      1.848036
  H       2.263813     -4.940439      1.359844
  H       2.078870     -4.145215      2.913503
  H       0.419010     -3.117659      1.197603
  H       3.047925     -1.538566      0.817821
  H       1.667711     -1.152088     -1.871782
  H       1.655084      0.263564     -0.058898
  H      -0.717012     -0.004654     -0.561837
  H      -0.633453     -1.737445     -0.253091
  H      -0.811242     -0.615516      1.082860
  O       1.464073     -1.220531     -2.825667
  H       0.508088     -1.409001     -2.863659
17
Coordinates from ORCA-job opt E -268.807655190903
  C       2.370970     -3.992998      1.844810
  C       1.468617     -2.899453      1.285313
  C       1.962010     -1.674428      0.814229
  C       1.169121     -0.644876      0.269508
  C      -0.347415     -0.744858      0.119493
  H       3.412840     -3.700374      1.779574
  H       2.239687     -4.921383      1.294033
  H       2.134506     -4.193512      2.887570
  H       0.407685     -3.097309      1.255913
  H       3.027874     -1.505789      0.878119
  H       1.685228     -1.189781     -1.889671
  H       1.644912      0.274721     -0.039429
  H      -0.717414      0.004433     -0.572344
  H      -0.643926     -1.725264     -0.239077
  H      -0.835919     -0.583043      1.078249
  O       1.497783     -1.277275     -2.844187
  H       0.541630     -1.465010     -2.893381
17
Coordinates from ORCA-job opt E -268.807789197517
  C       2.372450     -3.993359      1.837330
  C       1.466230     -2.894925      1.293722
  C       1.956830     -1.666310      0.829346
  C       1.165026     -0.637805      0.283011
  C      -0.350772     -0.737631      0.128744
  H       3.413430     -3.697013      1.774309
  H       2.242156     -4.912521      1.270798
  H       2.139209     -4.213075      2.876711
  H       0.405953     -3.094394      1.264520
  H       3.022585     -1.496004      0.895140
  H       1.690442     -1.205971     -1.908839
  H       1.642019      0.281700     -0.024728
  H      -0.717864      0.009636     -0.566668
  H      -0.647156     -1.718886     -0.227429
  H      -0.842493     -0.571807      1.085186
  O       1.507916     -1.300405     -2.864324
  H       0.552229     -1.487429     -2.918107
17
Coordinates from ORCA-job opt E -268.807950681131
  C       2.372833     -3.992888      1.833521
  C       1.465536     -2.893959      1.292667
  C       1.953844     -1.659185      0.841176
  C       1.162154     -0.628067      0.302789
  C      -0.353158     -0.727724      0.148327
  H       3.411686     -3.685345      1.794288
  H       2.261067     -4.902366      1.247454
  H       2.123818     -4.235177      2.864084
  H       0.406051     -3.096691      1.257211
  H       3.019382     -1.488102      0.907357
  H       1.694534     -1.226164     -1.946505
  H       1.638928      0.293320      0.001625
  H      -0.719355      0.017883     -0.549403
  H      -0.649324     -1.709292     -0.206516
  H      -0.846898     -0.559839      1.103366
  O       1.516354     -1.328006     -2.901585
  H       0.560738     -1.514596     -2.961137
17
Coordinates from ORCA-job opt E -268.808019238449
  C       2.371875     -3.992243      1.833803
  C       1.466772     -2.895834      1.284458
  C       1.955028     -1.657284      0.842728
  C       1.161797     -0.621618      0.315945
  C      -0.353628     -0.721551      0.164465
  H       3.408422     -3.674903      1.821115
  H       2.281762     -4.898004      1.238270
  H       2.101369     -4.244829      2.856430
  H       0.407997     -3.100515      1.241954
  H       3.020486     -1.486270      0.909167
  H       1.695562     -1.237856     -1.975391
  H       1.636714      0.303216      0.022927
  H      -0.721103      0.023133     -0.533635
  H      -0.648992     -1.703257     -0.190404
  H      -0.847488     -0.554232      1.119501
  O       1.518378     -1.343573     -2.930075
  H       0.563240     -1.530581     -2.992535
17
Coordinates from ORCA-job opt E -268.808036991838
  C       2.371295     -3.992024      1.832243
  C       1.467605     -2.896337      1.279118
  C       1.956187     -1.656289      0.842304
  C       1.161436     -0.617620      0.322425
  C      -0.354186     -0.717955      0.172312
  H       3.406513     -3.670170      1.833032
  H       2.292422     -4.896362      1.233036
  H       2.089548     -4.248466      2.850911
  H       0.409075     -3.101741      1.233258
  H       3.021464     -1.485167      0.909987
  H       1.696709     -1.244764     -1.987351
  H       1.634613      0.309991      0.035298
  H      -0.722226      0.025556     -0.526802
  H      -0.648603     -1.700154     -0.181755
  H      -0.848372     -0.550472      1.127134
  O       1.519902     -1.353203     -2.941505
  H       0.564809     -1.541023     -3.004925
17
Coordinates from ORCA-job opt E -268.808047235695
  C       2.371135     -3.991867      1.828440
  C       1.467862     -2.895692      1.275510
  C       1.956429     -1.654610      0.842242
  C       1.160558     -0.613987      0.326603
  C      -0.355105     -0.714684      0.176389
  H       3.405630     -3.667768      1.835983
  H       2.297917     -4.894793      1.226459
  H       2.084078     -4.251274      2.844897
  H       0.409525     -3.101648      1.227988
  H       3.021524     -1.483205      0.911545
  H       1.698488     -1.251445     -1.990155
  H       1.632273      0.315912      0.044477
  H      -0.722767      0.027154     -0.524717
  H      -0.648702     -1.697754     -0.175885
  H      -0.850086     -0.545745      1.130537
  O       1.522155     -1.363101     -2.944010
  H       0.567278     -1.551690     -3.007584
17
Coordinates from ORCA-job opt E -268.808069024428
  C       2.371394     -3.991356      1.816322
  C       1.467795     -2.893125      1.267820
  C       1.955515     -1.649276      0.842828
  C       1.157767     -0.605112      0.334778
  C      -0.357784     -0.706453      0.182469
  H       3.404636     -3.663632      1.833998
  H       2.306569     -4.890226      1.207450
  H       2.077435     -4.258488      2.828826
  H       0.409938     -3.100733      1.217434
  H       3.020160     -1.476911      0.916147
  H       1.703690     -1.268719     -1.986436
  H       1.626564      0.329673      0.063864
  H      -0.723283      0.030649     -0.524772
  H      -0.649915     -1.691907     -0.164096
  H      -0.855304     -0.531950      1.134299
  O       1.528817     -1.389203     -2.939438
  H       0.574197     -1.579428     -3.002769
17
Coordinates from ORCA-job opt E -268.808107664439
  C       2.372569     -3.990164      1.793684
  C       1.467079     -2.888441      1.255157
  C       1.952410     -1.639509      0.843912
  C       1.152756     -0.590796      0.345598
  C      -0.362387     -0.692708      0.187980
  H       3.404202     -3.658094      1.822078
  H       2.316445     -4.881906      1.173649
  H       2.072982     -4.270294      2.801030
  H       0.410110     -3.099319      1.200554
  H       3.016295     -1.465290      0.923580
  H       1.712646     -1.297895     -1.967359
  H       1.617652      0.350900      0.091659
  H      -0.723063      0.035968     -0.530447
  H      -0.653103     -1.682176     -0.147857
  H      -0.864528     -0.506735      1.135230
  O       1.540199     -1.433764     -2.918798
  H       0.585924     -1.625977     -2.980931
17
Coordinates from ORCA-job opt E -268.808154106952
  C       2.374229     -3.988887      1.773917
  C       1.465923     -2.884551      1.245512
  C       1.948383     -1.630913      0.845547
  C       1.148407     -0.580170      0.352057
  C      -0.366180     -0.681817      0.188645
  H       3.405020     -3.654484      1.805586
  H       2.320491     -4.874416      1.144794
  H       2.075364     -4.280063      2.778317
  H       0.409774     -3.098587      1.187738
  H       3.011649     -1.454835      0.929929
  H       1.719909     -1.321425     -1.942028
  H       1.611568      0.365390      0.109299
  H      -0.721937      0.039987     -0.539181
  H      -0.657112     -1.674236     -0.137808
  H      -0.872150     -0.484653      1.131623
  O       1.549537     -1.469885     -2.892099
  H       0.595314     -1.662652     -2.953127
17
Coordinates from ORCA-job opt E -268.808213514941
  C       2.376881     -3.987071      1.753042
  C       1.463953     -2.880899      1.236783
  C       1.941952     -1.620808      0.849982
  C       1.143354     -0.570220      0.358303
  C      -0.370214     -0.670361      0.187356
  H       3.406784     -3.650000      1.784839
  H       2.322533     -4.864301      1.112227
  H       2.083229     -4.293313      2.754403
  H       0.408894     -3.099098      1.174967
  H       3.004525     -1.442002      0.938412
  H       1.727277     -1.346961     -1.910833
  H       1.607605      0.376294      0.122982
  H      -0.720015      0.044924     -0.549843
  H      -0.663714     -1.664991     -0.129308
  H      -0.879828     -0.459271      1.125413
  O       1.559704     -1.508319     -2.859439
  H       0.605269     -1.699801     -2.920563
17
Coordinates from ORCA-job opt E -268.808258605854
  C       2.379048     -3.985349      1.732774
  C       1.462764     -2.878046      1.225084
  C       1.936990     -1.611832      0.852077
  C       1.138729     -0.559633      0.365295
  C      -0.373979     -0.658814      0.187834
  H       3.407589     -3.644682      1.769386
  H       2.328301     -4.855623      1.082131
  H       2.085685     -4.304211      2.730234
  H       0.408843     -3.099993      1.157696
  H       2.998740     -1.430381      0.945056
  H       1.734230     -1.372295     -1.882184
  H       1.603297      0.389142      0.138493
  H      -0.718896      0.049463     -0.558508
  H      -0.669401     -1.655797     -0.119119
  H      -0.886925     -0.434700      1.121112
  O       1.568897     -1.546456     -2.828862
  H       0.614277     -1.736992     -2.889779
17
Coordinates from ORCA-job opt E -268.808318317538
  C       2.381789     -3.982737      1.702705
  C       1.461483     -2.873745      1.206198
  C       1.930749     -1.599446      0.853608
  C       1.132192     -0.543483      0.376253
  C      -0.379327     -0.641794      0.189669
  H       3.408165     -3.636750      1.748800
  H       2.338626     -4.843738      1.039242
  H       2.086019     -4.317892      2.694093
  H       0.409191     -3.100564      1.130309
  H       2.991248     -1.414446      0.953971
  H       1.744360     -1.409545     -1.841535
  H       1.595809      0.409071      0.163272
  H      -0.717469      0.055537     -0.570142
  H      -0.676697     -1.642318     -0.102920
  H      -0.897317     -0.399462      1.115655
  O       1.582088     -1.602664     -2.785050
  H       0.627281     -1.792222     -2.845408
17
Coordinates from ORCA-job opt E -268.808396070304
  C       2.385684     -3.978376      1.657269
  C       1.459790     -2.866876      1.177166
  C       1.921766     -1.581466      0.855641
  C       1.122356     -0.519072      0.393974
  C      -0.387255     -0.616198      0.193485
  H       3.408574     -3.624629      1.719155
  H       2.355269     -4.825403      0.975331
  H       2.084878     -4.337042      2.638885
  H       0.410003     -3.100402      1.088364
  H       2.980276     -1.391591      0.967521
  H       1.759393     -1.466314     -1.782483
  H       1.583929      0.439049      0.201782
  H      -0.714947      0.064333     -0.586151
  H      -0.687257     -1.621621     -0.077892
  H      -0.913094     -0.347429      1.107765
  O       1.601995     -1.687728     -2.720512
  H       0.646831     -1.875433     -2.780579
17
Coordinates from ORCA-job opt E -268.808477374674
  C       2.391639     -3.970806      1.589037
  C       1.457197     -2.855733      1.134643
  C       1.907804     -1.555353      0.860024
  C       1.107516     -0.482502      0.422718
  C      -0.398935     -0.577438      0.200450
  H       3.408794     -3.606021      1.676203
  H       2.381356     -4.794918      0.878953
  H       2.082994     -4.365730      2.554187
  H       0.411398     -3.098742      1.026616
  H       2.963215     -1.359190      0.989430
  H       1.781234     -1.553802     -1.698266
  H       1.565147      0.483654      0.261782
  H      -0.709525      0.077800     -0.607729
  H      -0.703155     -1.588984     -0.040351
  H      -0.936973     -0.270665      1.095552
  O       1.632168     -1.817053     -2.626647
  H       0.676316     -2.000717     -2.687880
17
Coordinates from ORCA-job opt E -268.808522727164
  C       2.396340     -3.962293      1.529622
  C       1.454881     -2.843915      1.098708
  C       1.895891     -1.532021      0.866344
  C       1.094043     -0.451061      0.451515
  C      -0.409270     -0.544051      0.209098
  H       3.408087     -3.589081      1.640762
  H       2.404047     -4.763824      0.794030
  H       2.080468     -4.390540      2.478085
  H       0.412667     -3.093850      0.973025
  H       2.948543     -1.331100      1.010684
  H       1.800084     -1.634268     -1.631241
  H       1.549459      0.519545      0.316621
  H      -0.704263      0.089911     -0.621939
  H      -0.717683     -1.559503     -0.007358
  H      -0.957909     -0.206075      1.086339
  O       1.659645     -1.932685     -2.550229
  H       0.703161     -2.111387     -2.615345
17
Coordinates from ORCA-job opt E -268.808573560102
  C       2.396542     -3.957009      1.506983
  C       1.453816     -2.835168      1.087924
  C       1.892880     -1.520138      0.872252
  C       1.087502     -0.437906      0.468821
  C      -0.414372     -0.530934      0.218396
  H       3.406224     -3.582102      1.630469
  H       2.412142     -4.746926      0.759023
  H       2.075787     -4.400856      2.446576
  H       0.412619     -3.086227      0.956381
  H       2.944619     -1.318424      1.021870
  H       1.809578     -1.672691     -1.621442
  H       1.542514      0.533686      0.346856
  H      -0.702902      0.096011     -0.620322
  H      -0.722801     -1.547703      0.008840
  H      -0.967936     -0.184145      1.089001
  O       1.674209     -1.984210     -2.536933
  H       0.717768     -2.161458     -2.605975
17
Coordinates from ORCA-job opt E -268.808618592994
  C       2.398525     -3.947581      1.462021
  C       1.451438     -2.819815      1.068619
  C       1.884506     -1.498622      0.883476
  C       1.074898     -0.410729      0.501294
  C      -0.423852     -0.502133      0.235102
  H       3.403614     -3.569216      1.609935
  H       2.430731     -4.712819      0.689333
  H       2.069356     -4.423274      2.382846
  H       0.412685     -3.075172      0.928271
  H       2.934087     -1.296182      1.045234
  H       1.827162     -1.749906     -1.603520
  H       1.524121      0.569091      0.411628
  H      -0.696492      0.110735     -0.619341
  H      -0.732045     -1.521545      0.039315
  H      -0.988093     -0.139107      1.092072
  O       1.702068     -2.087582     -2.510936
  H       0.745480     -2.262343     -2.586628
17
Coordinates from ORCA-job opt E -268.808630478785
  C       2.397998     -3.942561      1.447813
  C       1.451151     -2.812030      1.061903
  C       1.883275     -1.487926      0.890392
  C       1.069137     -0.403121      0.516528
  C      -0.428201     -0.494143      0.243571
  H       3.402234     -3.564746      1.602855
  H       2.433165     -4.699611      0.667143
  H       2.066583     -4.428476      2.362441
  H       0.413008     -3.066885      0.916050
  H       2.932061     -1.284414      1.056054
  H       1.833955     -1.780035     -1.602376
  H       1.523065      0.573262      0.432985
  H      -0.696422      0.116241     -0.614180
  H      -0.737209     -1.513669      0.049792
  H      -0.995450     -0.127143      1.096737
  O       1.713075     -2.124389     -2.508451
  H       0.756765     -2.296552     -2.590536
17
Coordinates from ORCA-job opt E -268.808638746505
  C       2.401425     -3.937577      1.416783
  C       1.449908     -2.806607      1.044127
  C       1.875590     -1.477445      0.894922
  C       1.062450     -0.386875      0.532275
  C      -0.432967     -0.475842      0.247941
  H       3.402276     -3.556251      1.584662
  H       2.446169     -4.680677      0.623236
  H       2.067509     -4.441396      2.320740
  H       0.414044     -3.065216      0.888669
  H       2.922661     -1.272220      1.069564
  H       1.841906     -1.823940     -1.569554
  H       1.513388      0.592680      0.464300
  H      -0.691495      0.124510     -0.619939
  H      -0.744792     -1.496379      0.064758
  H      -1.005770     -0.094999      1.091261
  O       1.726279     -2.184703     -2.469640
  H       0.769609     -2.353263     -2.555384
17
Coordinates from ORCA-job opt E -268.808640888537
  C       2.400514     -3.938248      1.422998
  C       1.450119     -2.807051      1.048254
  C       1.877369     -1.479125      0.894532
  C       1.064066     -0.389748      0.529742
  C      -0.431851     -0.479262      0.247524
  H       3.402198     -3.557963      1.588246
  H       2.443080     -4.684014      0.631844
  H       2.067030     -4.438515      2.329094
  H       0.413744     -3.064744      0.894646
  H       2.924775     -1.274613      1.068045
  H       1.840532     -1.816675     -1.578850
  H       1.514217      0.590257      0.461050
  H      -0.692245      0.122884     -0.618481
  H      -0.742637     -1.499797      0.062396
  H      -1.003893     -0.102047      1.092995
  O       1.723884     -2.174131     -2.480145
  H       0.767289     -2.343406     -2.565170
17
Coordinates from ORCA-job opt E -268.808642185217
  C       2.400663     -3.937389      1.420363
  C       1.450134     -2.805958      1.046741
  C       1.876984     -1.477559      0.895827
  C       1.063543     -0.388157      0.532087
  C      -0.432091     -0.477600      0.248330
  H       3.402192     -3.557107      1.586497
  H       2.443654     -4.682064      0.628207
  H       2.067003     -4.438985      2.325665
  H       0.414049     -3.063686      0.891492
  H       2.924082     -1.273029      1.071023
  H       1.841182     -1.822445     -1.578242
  H       1.513006      0.592360      0.466316
  H      -0.691646      0.123825     -0.618421
  H      -0.742978     -1.498232      0.063957
  H      -1.004853     -0.099940      1.093112
  O       1.724976     -2.180930     -2.479179
  H       0.768290     -2.349302     -2.565055
17
Coordinates from ORCA-job opt E -268.808645266696
  C       2.401526     -3.935135      1.412707
  C       1.450575     -2.803456      1.041152
  C       1.875838     -1.473348      0.899613
  C       1.062189     -0.383703      0.538486
  C      -0.432442     -0.472979      0.249606
  H       3.402608     -3.554558      1.580788
  H       2.445592     -4.677608      0.618546
  H       2.067588     -4.439552      2.316366
  H       0.415523     -3.061540      0.879952
  H       2.921854     -1.268389      1.080568
  H       1.842072     -1.838939     -1.573932
  H       1.509927      0.598052      0.480896
  H      -0.689517      0.126614     -0.619146
  H      -0.743983     -1.493753      0.067227
  H      -1.007332     -0.093640      1.092205
  O       1.726635     -2.199848     -2.473992
  H       0.769536     -2.364416     -2.562322
17
Coordinates from ORCA-job opt E -268.808647805398
  C       2.402459     -3.934117      1.409367
  C       1.451506     -2.802653      1.037282
  C       1.875566     -1.471360      0.902232
  C       1.061923     -0.381642      0.541703
  C      -0.431935     -0.471018      0.249032
  H       3.403450     -3.553315      1.577436
  H       2.446571     -4.676910      0.615534
  H       2.068589     -4.438272      2.313231
  H       0.417394     -3.061199      0.871067
  H       2.920628     -1.265864      1.087937
  H       1.840906     -1.848000     -1.570930
  H       1.508484      0.600887      0.489364
  H      -0.687551      0.128228     -0.620391
  H      -0.743885     -1.491714      0.067010
  H      -1.008260     -0.091160      1.090443
  O       1.725001     -2.208792     -2.470958
  H       0.767345     -2.369299     -2.560636
17
Coordinates from ORCA-job opt E -268.808652636777
  C       2.404379     -3.933617      1.408515
  C       1.454129     -2.803021      1.032122
  C       1.876357     -1.470141      0.906122
  C       1.062879     -0.380643      0.544149
  C      -0.429723     -0.470697      0.245457
  H       3.405745     -3.552716      1.574094
  H       2.447131     -4.680234      0.618274
  H       2.070945     -4.433252      2.315115
  H       0.421730     -3.062675      0.857245
  H       2.919674     -1.263475      1.100118
  H       1.835647     -1.856742     -1.567357
  H       1.507640      0.602989      0.498936
  H      -0.683523      0.129827     -0.623622
  H      -0.741773     -1.491048      0.061738
  H      -1.008287     -0.091675      1.085767
  O       1.717101     -2.213706     -2.468541
  H       0.758140     -2.365375     -2.559410
17
Coordinates from ORCA-job opt E -268.808658160927
  C       2.406572     -3.934585      1.413524
  C       1.457804     -2.805313      1.029443
  C       1.878607     -1.471506      0.909071
  C       1.065472     -0.382669      0.542868
  C      -0.426017     -0.474030      0.238958
  H       3.408869     -3.554077      1.574334
  H       2.446551     -4.688106      0.629821
  H       2.073716     -4.425701      2.325055
  H       0.427145     -3.066490      0.846699
  H       2.920198     -1.263496      1.110749
  H       1.826651     -1.857008     -1.565938
  H       1.508816      0.601757      0.502082
  H      -0.678648      0.129811     -0.628169
  H      -0.737050     -1.493865      0.050738
  H      -1.006694     -0.098041      1.079227
  O       1.703409     -2.205955     -2.469609
  H       0.742787     -2.346924     -2.560133
17
Coordinates from ORCA-job opt E -268.808665089622
  C       2.409220     -3.936887      1.423988
  C       1.462586     -2.809391      1.029360
  C       1.882263     -1.475261      0.911217
  C       1.069774     -0.387461      0.538174
  C      -0.420607     -0.480895      0.229111
  H       3.412822     -3.557273      1.578733
  H       2.445628     -4.699471      0.649045
  H       2.076693     -4.416467      2.341833
  H       0.433691     -3.072735      0.839655
  H       2.922157     -1.265679      1.119975
  H       1.813287     -1.849803     -1.565617
  H       1.512100      0.597526      0.499327
  H      -0.672059      0.128130     -0.634740
  H      -0.728949     -1.500128      0.033297
  H      -1.003929     -0.110329      1.069985
  O       1.683100     -2.186268     -2.473032
  H       0.720412     -2.313807     -2.561589
17
Coordinates from ORCA-job opt E -268.808672913211
  C       2.411758     -3.939262      1.434865
  C       1.466921     -2.813295      1.031417
  C       1.885869     -1.479295      0.912636
  C       1.074236     -0.392417      0.533107
  C      -0.415055     -0.488197      0.218953
  H       3.416198     -3.560450      1.586195
  H       2.446325     -4.708413      0.666435
  H       2.078471     -4.410254      2.356910
  H       0.439354     -3.078885      0.837398
  H       2.924548     -1.268309      1.126085
  H       1.799332     -1.841229     -1.564711
  H       1.516231      0.592802      0.494161
  H      -0.664528      0.125745     -0.642001
  H      -0.719334     -1.507052      0.014870
  H      -1.001863     -0.123581      1.059979
  O       1.662170     -2.164953     -2.475732
  H       0.697558     -2.279155     -2.561845
17
Coordinates from ORCA-job opt E -268.808684352268
  C       2.414733     -3.941090      1.444498
  C       1.471212     -2.816178      1.034823
  C       1.889479     -1.482376      0.914949
  C       1.078879     -0.396207      0.529911
  C      -0.408713     -0.495043      0.207819
  H       3.419019     -3.562511      1.597498
  H       2.450956     -4.712645      0.678579
  H       2.078462     -4.408829      2.367115
  H       0.444808     -3.084136      0.837605
  H       2.927113     -1.269958      1.132153
  H       1.783065     -1.836904     -1.561443
  H       1.520944      0.589094      0.490951
  H      -0.653833      0.123275     -0.651271
  H      -0.706691     -1.513883     -0.005592
  H      -1.001666     -0.137069      1.047295
  O       1.638544     -2.147059     -2.476037
  H       0.671880     -2.244679     -2.560132
17
Coordinates from ORCA-job opt E -268.808699445764
  C       2.417862     -3.941352      1.449425
  C       1.474745     -2.816448      1.038705
  C       1.892516     -1.482624      0.919232
  C       1.082776     -0.396775      0.531530
  C      -0.402222     -0.499107      0.197681
  H       3.420259     -3.561808      1.612094
  H       2.461321     -4.708284      0.679182
  H       2.075581     -4.415130      2.366686
  H       0.449157     -3.085917      0.839177
  H       2.929335     -1.269083      1.139254
  H       1.766257     -1.843088     -1.555621
  H       1.524989      0.588592      0.494385
  H      -0.640369      0.121705     -0.661585
  H      -0.692211     -1.518502     -0.024087
  H      -1.004366     -0.147331      1.033084
  O       1.615529     -2.141367     -2.473149
  H       0.647031     -2.219679     -2.557275
17
Coordinates from ORCA-job opt E -268.808715384618
  C       2.420639     -3.940164      1.450033
  C       1.477235     -2.814512      1.042214
  C       1.894982     -1.480386      0.925087
  C       1.085740     -0.394715      0.537210
  C      -0.396058     -0.500110      0.189865
  H       3.419598     -3.558545      1.628132
  H       2.475639     -4.697254      0.670711
  H       2.070537     -4.426890      2.357435
  H       0.452027     -3.083690      0.840538
  H       2.931169     -1.266353      1.147486
  H       1.750878     -1.857992     -1.549840
  H       1.527556      0.590895      0.503898
  H      -0.627039      0.121348     -0.670867
  H      -0.678689     -1.520376     -0.037358
  H      -1.008364     -0.153663      1.019990
  O       1.596017     -2.147373     -2.469541
  H       0.626323     -2.206418     -2.556272
17
Coordinates from ORCA-job opt E -268.808728925801
  C       2.423804     -3.938396      1.448337
  C       1.480140     -2.812222      1.042937
  C       1.897350     -1.477096      0.932481
  C       1.088407     -0.391412      0.544764
  C      -0.389599     -0.499044      0.182596
  H       3.418636     -3.554083      1.642880
  H       2.491727     -4.685402      0.660239
  H       2.065617     -4.438406      2.345242
  H       0.455837     -3.080297      0.835592
  H       2.932160     -1.262496      1.160513
  H       1.734886     -1.878886     -1.543647
  H       1.528420      0.595090      0.518670
  H      -0.614156      0.122661     -0.679600
  H      -0.667196     -1.519950     -0.047876
  H      -1.011894     -0.156919      1.007078
  O       1.577213     -2.160529     -2.465200
  H       0.606838     -2.198812     -2.556285
17
Coordinates from ORCA-job opt E -268.808737371455
  C       2.426894     -3.936991      1.446731
  C       1.483034     -2.810997      1.041583
  C       1.899005     -1.474646      0.938851
  C       1.090636     -0.388913      0.550867
  C      -0.384070     -0.497185      0.176942
  H       3.417837     -3.549854      1.655011
  H       2.506480     -4.676614      0.652724
  H       2.061774     -4.446813      2.335246
  H       0.460052     -3.078359      0.827128
  H       2.932042     -1.259219      1.173887
  H       1.721070     -1.897286     -1.538710
  H       1.528509      0.598662      0.531695
  H      -0.604293      0.125151     -0.685879
  H      -0.660250     -1.518116     -0.055073
  H      -1.013660     -0.157749      0.997091
  O       1.561752     -2.173167     -2.461845
  H       0.591377     -2.194102     -2.557526
17
Coordinates from ORCA-job opt E -268.808740491942
  C       2.430005     -3.936632      1.447492
  C       1.486574     -2.811340      1.039475
  C       1.900689     -1.473834      0.943765
  C       1.092742     -0.388135      0.553932
  C      -0.379586     -0.496785      0.171338
  H       3.418525     -3.547701      1.663822
  H       2.516963     -4.673694      0.651877
  H       2.059922     -4.449989      2.331905
  H       0.465441     -3.079533      0.817387
  H       2.931734     -1.257206      1.186366
  H       1.708124     -1.909123     -1.535192
  H       1.528773      0.600300      0.540193
  H      -0.596521      0.127240     -0.691078
  H      -0.655377     -1.517210     -0.063289
  H      -1.014041     -0.158989      0.988508
  O       1.547276     -2.178826     -2.459701
  H       0.576946     -2.184742     -2.558080
17
Coordinates from ORCA-job opt E -268.808741061169
  C       2.430686     -3.936400      1.448081
  C       1.487012     -2.811663      1.039041
  C       1.900370     -1.473913      0.944051
  C       1.093383     -0.388788      0.554314
  C      -0.378704     -0.495798      0.171949
  H       3.417471     -3.546098      1.669829
  H       2.522850     -4.671254      0.651003
  H       2.057497     -4.452674      2.329465
  H       0.466317     -3.080466      0.815558
  H       2.931059     -1.257100      1.188017
  H       1.706649     -1.911143     -1.536377
  H       1.528963      0.599880      0.539775
  H      -0.596062      0.128652     -0.690079
  H      -0.657571     -1.515556     -0.061764
  H      -1.012887     -0.157567      0.989224
  O       1.545481     -2.180797     -2.461369
  H       0.575677     -2.185516     -2.561996
17
Coordinates from ORCA-job opt E -268.808742480443
  C       2.431742     -3.936486      1.448326
  C       1.488603     -2.811777      1.037912
  C       1.901232     -1.473669      0.945465
  C       1.093991     -0.388378      0.554858
  C      -0.377506     -0.496345      0.169554
  H       3.418371     -3.546415      1.671178
  H       2.524656     -4.671571      0.651561
  H       2.057310     -4.452347      2.329434
  H       0.468761     -3.081545      0.811631
  H       2.931171     -1.256366      1.192189
  H       1.701932     -1.914341     -1.533850
  H       1.528893      0.600660      0.542228
  H      -0.593069      0.128501     -0.692654
  H      -0.655145     -1.516099     -0.065800
  H      -1.013291     -0.158074      0.985546
  O       1.540241     -2.181468     -2.459152
  H       0.570296     -2.180481     -2.559707
17
Coordinates from ORCA-job opt E -268.808742978874
  C       2.431779     -3.936805      1.449863
  C       1.488961     -2.812123      1.038572
  C       1.901740     -1.474142      0.945091
  C       1.094329     -0.389224      0.553784
  C      -0.377408     -0.497471      0.169091
  H       3.418615     -3.547091      1.672422
  H       2.524306     -4.672518      0.653636
  H       2.057069     -4.451794      2.331362
  H       0.469168     -3.082322      0.812608
  H       2.931764     -1.256980      1.191589
  H       1.701190     -1.912127     -1.534599
  H       1.529221      0.599724      0.539926
  H      -0.593064      0.127545     -0.692975
  H      -0.654730     -1.517157     -0.066815
  H      -1.012822     -0.159306      0.985390
  O       1.539054     -2.178034     -2.460085
  H       0.569020     -2.176374     -2.560138
