15
Coordinates from ORCA-job opt E -196.250857418758
  C           2.48091985405005      0.64128389934228     -0.19116730083938
  C           1.26365599535820     -0.15805964827829      0.15871299156894
  C           0.07730653434168     -0.03820868850799     -0.43697805739235
  C          -1.14693051297724     -0.82557237739749     -0.07980160074228
  C          -2.29389828638174      0.07143530280147      0.39019873577991
  H           3.30071879000257     -0.00859546411327     -0.50665556977232
  H           2.27203587611902      1.34299173388696     -0.99917901216742
  H           2.83951430478201      1.20936671114756      0.67056270405747
  H           1.37160781964023     -0.88754899119144      0.95829774339886
  H          -0.03549627298351      0.69395223297569     -1.23499283578755
  H          -1.47866307435159     -1.39775173486408     -0.95225131850149
  H          -0.89783742217760     -1.55181575665901      0.69773591515587
  H          -3.18651567370488     -0.51431333260924      0.61512175671582
  H          -2.00987021568329      0.62147587731987      1.28852742685049
  H          -2.55654771603390      0.80136024614699     -0.37813156832455
