15
Coordinates from ORCA-job opt E -196.250667713868
  C       2.474554      0.636742     -0.192249
  C       1.258980     -0.154161      0.156155
  C       0.078137     -0.033557     -0.431344
  C      -1.143187     -0.817201     -0.076655
  C      -2.288406      0.068228      0.387416
  H       3.289098     -0.016117     -0.507706
  H       2.271953      1.339946     -0.998260
  H       2.834288      1.200946      0.668822
  H       1.368968     -0.883622      0.954576
  H      -0.036640      0.698514     -1.227969
  H      -1.466932     -1.391397     -0.948657
  H      -0.895357     -1.544326      0.698348
  H      -3.176396     -0.521085      0.613110
  H      -2.011202      0.622091      1.283876
  H      -2.557857      0.795000     -0.379463
15
Coordinates from ORCA-job opt E -196.250839906729
  C       2.482636      0.639392     -0.192265
  C       1.264225     -0.155909      0.156967
  C       0.077486     -0.035436     -0.433692
  C      -1.146902     -0.821505     -0.077591
  C      -2.296118      0.069458      0.388792
  H       3.300116     -0.012798     -0.508970
  H       2.277913      1.343738     -0.999147
  H       2.843392      1.204925      0.670244
  H       1.374534     -0.886164      0.956018
  H      -0.037796      0.697699     -1.230926
  H      -1.472982     -1.396628     -0.950642
  H      -0.898160     -1.549022      0.699261
  H      -3.186732     -0.519097      0.614753
  H      -2.017489      0.623510      1.286559
  H      -2.564122      0.797836     -0.379360
15
Coordinates from ORCA-job opt E -196.250849458524
  C       2.483253      0.640338     -0.192048
  C       1.264856     -0.156953      0.157825
  C       0.077117     -0.036220     -0.434670
  C      -1.147328     -0.823627     -0.078165
  C      -2.296594      0.070303      0.389149
  H       3.301508     -0.010906     -0.509051
  H       2.276640      1.344249     -0.998920
  H       2.843816      1.206317      0.670363
  H       1.374628     -0.887344      0.956600
  H      -0.037616      0.696993     -1.231718
  H      -1.475164     -1.397923     -0.951010
  H      -0.898420     -1.550311      0.699368
  H      -3.188038     -0.517195      0.614731
  H      -2.016277      0.623292      1.287035
  H      -2.562379      0.798988     -0.379489
15
Coordinates from ORCA-job opt E -196.250858145278
  C       2.482281      0.640882     -0.191716
  C       1.264474     -0.157713      0.158384
  C       0.077083     -0.037058     -0.435593
  C      -1.147134     -0.824894     -0.078774
  C      -2.295525      0.070954      0.389492
  H       3.301189     -0.009591     -0.508450
  H       2.274204      1.343960     -0.998829
  H       2.842161      1.207568      0.670455
  H       1.373492     -0.887895      0.957263
  H      -0.036847      0.695935     -1.232757
  H      -1.476739     -1.398190     -0.951401
  H      -0.898178     -1.551031      0.699032
  H      -3.187619     -0.515608      0.614648
  H      -2.013469      0.622621      1.287525
  H      -2.559375      0.800059     -0.379279
15
Coordinates from ORCA-job opt E -196.250854834667
  C       2.481331      0.641166     -0.191386
  C       1.263973     -0.158071      0.158657
  C       0.077209     -0.037760     -0.436374
  C      -1.146937     -0.825445     -0.079327
  C      -2.294461      0.071324      0.389832
  H       3.300734     -0.008835     -0.507689
  H       2.272448      1.343537     -0.998835
  H       2.840568      1.208518      0.670568
  H       1.372344     -0.887937      0.957842
  H      -0.036029      0.694846     -1.233920
  H      -1.477900     -1.398073     -0.951798
  H      -0.897929     -1.551424      0.698482
  H      -3.186925     -0.514667      0.614780
  H      -2.011134      0.622002      1.288006
  H      -2.557293      0.800818     -0.378839
15
Coordinates from ORCA-job opt E -196.250857418758
  C       2.480920      0.641284     -0.191167
  C       1.263656     -0.158060      0.158713
  C       0.077307     -0.038209     -0.436978
  C      -1.146931     -0.825572     -0.079802
  C      -2.293898      0.071435      0.390199
  H       3.300719     -0.008595     -0.506656
  H       2.272036      1.342992     -0.999179
  H       2.839514      1.209367      0.670563
  H       1.371608     -0.887549      0.958298
  H      -0.035496      0.693952     -1.234993
  H      -1.478663     -1.397752     -0.952251
  H      -0.897837     -1.551816      0.697736
  H      -3.186516     -0.514313      0.615122
  H      -2.009870      0.621476      1.288527
  H      -2.556548      0.801360     -0.378132
