15
Coordinates from ORCA-job opt E -34.507365427503
  C           2.47455355715608      0.63674155687610     -0.19224875449751
  C           1.25897979685400     -0.15416130987479      0.15615534088666
  C           0.07813719873186     -0.03355705107760     -0.43134395885056
  C          -1.14318661975371     -0.81720080232016     -0.07665543277365
  C          -2.28840637514400      0.06822755250571      0.38741649542660
  H           3.28909763069690     -0.01611670018852     -0.50770552406133
  H           2.27195258154059      1.33994626419296     -0.99826026278335
  H           2.83428767149903      1.20094590437604      0.66882184529918
  H           1.36896773358206     -0.88362238611218      0.95457625098174
  H          -0.03663983882995      0.69851437256340     -1.22796918086308
  H          -1.46693171892969     -1.39139678578595     -0.94865748422236
  H          -0.89535698393018     -1.54432644583663      0.69834780262286
  H          -3.17639574835929     -0.52108494213073      0.61310990440485
  H          -2.01120237048614      0.62209056426571      1.28387577943445
  H          -2.55785650462757      0.79500020854664     -0.37946282100450
