15
Coordinates from ORCA-job opt E -34.506996520628
  C       2.465859      0.642324     -0.188744
  C       1.253701     -0.157609      0.156775
  C       0.076933     -0.038030     -0.433379
  C      -1.141285     -0.831957     -0.081419
  C      -2.277357      0.077943      0.385576
  H       3.275250     -0.015712     -0.505017
  H       2.253316      1.346526     -0.989426
  H       2.813927      1.195904      0.683322
  H       1.387525     -0.882548      0.950419
  H      -0.058195      0.688771     -1.225010
  H      -1.473549     -1.389856     -0.962210
  H      -0.900091     -1.551617      0.703385
  H      -3.161021     -0.508093      0.627971
  H      -1.975841      0.633073      1.271111
  H      -2.539172      0.790880     -0.393355
15
Coordinates from ORCA-job opt E -34.507250845108
  C       2.471439      0.641262     -0.189725
  C       1.256527     -0.157366      0.155459
  C       0.077842     -0.038231     -0.434356
  C      -1.143516     -0.825790     -0.079662
  C      -2.283271      0.073484      0.386918
  H       3.283792     -0.013926     -0.505186
  H       2.263962      1.346039     -0.992601
  H       2.823531      1.198712      0.678633
  H       1.381343     -0.884566      0.953346
  H      -0.049840      0.691207     -1.230808
  H      -1.473715     -1.389590     -0.955180
  H      -0.900581     -1.548337      0.700066
  H      -3.169390     -0.513904      0.624331
  H      -1.989382      0.628622      1.276688
  H      -2.548740      0.792384     -0.387924
15
Coordinates from ORCA-job opt E -34.507357907188
  C       2.475260      0.638216     -0.191447
  C       1.258502     -0.154607      0.155818
  C       0.078281     -0.035500     -0.433025
  C      -1.144278     -0.818218     -0.077885
  C      -2.288176      0.068589      0.388055
  H       3.289896     -0.015181     -0.505488
  H       2.273231      1.341474     -0.997648
  H       2.832878      1.201704      0.670862
  H       1.371410     -0.882972      0.955660
  H      -0.038957      0.694975     -1.231854
  H      -1.470462     -1.389642     -0.950087
  H      -0.897862     -1.545580      0.696680
  H      -3.175854     -0.520283      0.617122
  H      -2.006085      0.622532      1.283186
  H      -2.557784      0.794495     -0.379948
15
Coordinates from ORCA-job opt E -34.507364460812
  C       2.474895      0.637135     -0.191972
  C       1.258767     -0.154013      0.156122
  C       0.078236     -0.034235     -0.432069
  C      -1.143625     -0.817181     -0.077268
  C      -2.288416      0.068127      0.387872
  H       3.289621     -0.015980     -0.506415
  H       2.272993      1.340017     -0.998484
  H       2.833883      1.201637      0.669179
  H       1.369263     -0.882796      0.955371
  H      -0.036907      0.696944     -1.229846
  H      -1.468252     -1.390501     -0.949352
  H      -0.896144     -1.544976      0.697090
  H      -3.176306     -0.521047      0.614554
  H      -2.009709      0.621820      1.284077
  H      -2.558299      0.795048     -0.378860
15
Coordinates from ORCA-job opt E -34.507365427503
  C       2.474554      0.636742     -0.192249
  C       1.258980     -0.154161      0.156155
  C       0.078137     -0.033557     -0.431344
  C      -1.143187     -0.817201     -0.076655
  C      -2.288406      0.068228      0.387416
  H       3.289098     -0.016117     -0.507706
  H       2.271953      1.339946     -0.998260
  H       2.834288      1.200946      0.668822
  H       1.368968     -0.883622      0.954576
  H      -0.036640      0.698514     -1.227969
  H      -1.466932     -1.391397     -0.948657
  H      -0.895357     -1.544326      0.698348
  H      -3.176396     -0.521085      0.613110
  H      -2.011202      0.622091      1.283876
  H      -2.557857      0.795000     -0.379463
