15
-15.7763442276 converged=true
C  2.46585892914304949386 0.64232362643666296442 -0.18874396245181621068
C  1.25370061797943010973 -0.15760905513232217889 0.15677529018851540932
C  0.07693277460620988328 -0.03802958392195084081 -0.43337943969500841712
C  -1.14128452448960104881 -0.83195714966646350241 -0.08141933947745906563
C  -2.27735677458948782004 0.07794300414712478087 0.38557626932963567912
H  3.27525038997402573315 -0.01571212561435035918 -0.50501680486904676481
H  2.25331612906285894127 1.34652643516290559944 -0.98942614590624822224
H  2.81392675349781162808 1.19590386354561517557 0.68332226844887011818
H  1.38752502638253738532 -0.88254773659323382251 0.95041920937420421023
H  -0.05819471054996376569 0.68877143191034007064 -1.22501008104436692747
H  -1.47354943481944689054 -1.38985566498961410353 -0.96220958639079356978
H  -0.90009097806693449950 -1.55161688775448824984 0.70338503690849152328
H  -3.16102102994130085278 -0.50809332388884120846 0.62797054137163976772
H  -1.97584128667435710014 0.63307320072120132348 1.27111130059951760174
H  -2.53917188151482386971 0.79087996563740958766 -0.39335455638615379748
15
-15.7750777120 converged=true
C  2.35838273613214033375 0.66719041650244892416 -0.12274223125688091263
C  0.91594207304868213715 0.37104678388252376742 0.12789638433468297762
C  0.16198618693745314712 -0.37298634013056214398 -0.66283503230151641361
C  -1.28637683467627872425 -0.71100512218855072000 -0.47499530819540181081
C  -1.93309289961540509140 -0.11848589171542688037 0.76992384167928207273
H  2.96703628791996631975 0.31237891324692168560 0.70908220246955133703
H  2.70299688269170390598 0.19026562286736070639 -1.03722434465880097854
H  2.51372946231091010105 1.74281228927304909782 -0.20788860091252919782
H  0.50896287457606215199 0.81611051416144542170 1.02473783146366681507
H  0.60113984474238979505 -0.80507358618507152137 -1.55508946899475697379
H  -1.83304034155597350697 -0.37224328823947527844 -1.36165642094486383229
H  -1.38069768269878889733 -1.80189483079919843256 -0.44678026095736395051
H  -2.97864348414121371533 -0.41450998891739565533 0.82294257012109484073
H  -1.43193811188830744108 -0.47131728525399130270 1.66812985492501120177
H  -1.88638699378333729584 0.96771179349590630281 0.74649898322881536039
15
-15.7744367097 converged=true
C  2.51604428940685265204 0.56988112027637627399 -0.40517142952283274893
C  1.34793746844082718006 -0.21759273764282258123 0.08857904215846625073
C  0.08238383578250169093 0.13097126413156545688 -0.07198157537192044486
C  -1.08943459299003286844 -0.66533343929118138327 0.42755114660240722824
C  -2.42136766185563967468 -0.01662123766727248084 0.06994484594631922292
H  3.10873933866036811224 -0.02715600610633231438 -1.09837134373503175766
H  2.18942090411671141936 1.47447964263439845745 -0.91245488719798473198
H  3.16391713810023356146 0.84755918415004127819 0.42627846157760501677
H  1.59251784260548312488 -1.13472953141964927326 0.61069324635337274287
H  -0.15681127901547289860 1.04823678806398912222 -0.59431002655738573992
H  -1.05085886190674515639 -1.67339191092141681416 0.00393639948592524984
H  -1.01835381497716115362 -0.77362377022108652636 1.51406383267946353932
H  -2.52331705365604497260 0.07356578255718691783 -1.00953594308939642588
H  -3.25038995337564085020 -0.61361627706960597539 0.44376592343739290625
H  -2.49042759933623170099 0.97737112852580443345 0.50701230723358758912
15
-15.7743259652 converged=true
C  2.45166323254271478760 0.65943999621944382472 -0.30636438269866195228
C  1.26071203320847624596 -0.09626895205931111643 0.20051324255223051951
C  0.08532577291096130057 -0.12273788158994486386 -0.40542640087449377528
C  -1.11628050281488921947 -0.86300992794440400946 0.08973004585242329301
C  -2.28273620490692996654 0.08903647263838020132 0.35295962420358750755
H  2.23058195253583013695 1.72428528383864532181 -0.37469286880162011588
H  3.30586108260500788347 0.52872475691161957556 0.35208706151047391986
H  2.73022229379546832462 0.31757932803937288790 -1.30276619404999283169
H  1.39715765544603187642 -0.65063447481070513234 1.12000243474598537574
H  -0.05940524747667585287 0.43224148360173536565 -1.32446166368878515129
H  -1.42077878935083479206 -1.59698990803481111200 -0.66274910802672759580
H  -0.86694932482525344231 -1.40212077489929143326 1.00586716553625166171
H  -2.55138991313636687153 0.62303730460319561857 -0.55600077597249597527
H  -3.15440184306369220124 -0.46158227082347474957 0.69955754740510889267
H  -2.00958219746985022880 0.81899956430954978792 1.11174427230669214950
15
-15.7730355772 converged=true
C  2.37872002584895625432 0.60404874046124790166 -0.10969518743772370406
C  0.93373933484778182113 0.31119665643510802111 0.16744395590999253121
C  0.11632724634935669161 -0.22428962728434187479 -0.72370785864930275988
C  -1.33453677841108664381 -0.55119087318531634345 -0.53925272342062247066
C  -1.90287898648257058909 -0.21908467700523415189 0.83414137792115816694
H  2.86080810416419373254 1.04092264483667951147 0.76065541564925198692
H  2.91147745692507431414 -0.30817369323658050373 -0.37644774800295710548
H  2.47817246337059549077 1.29840466421750488912 -0.94335090314892566798
H  0.58069570953295290838 0.56464272691658556891 1.15581549939025407525
H  0.50072952573016582534 -0.46831334910654393022 -1.70792862064397521493
H  -1.90546893213155477120 -0.01543327804541590013 -1.30523109203165765813
H  -1.47066616939180683232 -1.61977027539049966975 -0.73793963565247833181
H  -1.81234907377545706453 0.84494521218109364114 1.03963529363773532488
H  -2.95642085051853609201 -0.48694344871709227540 0.87538174101425969553
H  -1.37834907605810430553 -0.77096142307718484865 1.61048048546496125333
15
-15.7722805215 converged=true
C  2.47159734302564748631 0.64040277922709820668 -0.19143231510438249443
C  1.25921816058146540662 -0.15787870642564225121 0.15723079159455319309
C  0.08101225906908789132 -0.03614444079495613554 -0.42959956075772592898
C  -1.13748055042809692594 -0.83056515006980835558 -0.07730422864841204889
C  -2.29317682161685532094 0.07712573808775924356 0.38289723243423595678
H  3.27596396281461332833 -0.01828439074030490871 -0.51908492311591059032
H  2.25571182658968361068 1.35112182915985079568 -0.98550371515556578483
H  2.82861503065098407461 1.18612543764222544418 0.68191370960456532124
H  1.39380013145909575911 -0.88318827329814408866 0.95030564766558578427
H  -0.05493360622326826093 0.69053931959307091049 -1.22131950570922254151
H  -1.44872485370290693396 -1.40017577683992788806 -0.95702497510212303222
H  -0.88605666804099092460 -1.54788985142987445265 0.70527186238635330984
H  -1.98586650920997453973 1.12042997442898162319 0.37252304580442840987
H  -3.15997481935527479990 -0.02403325901356576436 -0.26506862963788879739
H  -2.59970488561320589582 -0.16758522952676227491 1.39619556374148268141
