15
-15.7763442276
C  2.46585892914300330858 0.64232362643667972879 -0.18874396245177796350
C  1.25370061797939325032 -0.15760905513233025577 0.15677529018852998099
C  0.07693277460621759933 -0.03802958392201817583 -0.43337943969508685438
C  -1.14128452448961326127 -0.83195714966649869648 -0.08141933947754970147
C  -2.27735677458941188078 0.07794300414714559755 0.38557626932969435440
H  3.27525038997400308460 -0.01571212561431093238 -0.50501680486898226086
H  2.25331612906279943331 1.34652643516289938219 -0.98942614590622701698
H  2.81392675349771703708 1.19590386354566002858 0.68332226844890964212
H  1.38752502638245056588 -0.88254773659317031775 0.95041920937428736593
H  -0.05819471054990516673 0.68877143191021616975 -1.22501008104450348490
H  -1.47354943481954592244 -1.38985566498955237513 -0.96220958639090714559
H  -0.90009097806696125588 -1.55161688775460104850 0.70338503690833042992
H  -3.16102102994123113078 -0.50809332388877204156 0.62797054137178387467
H  -1.97584128667413483349 0.63307320072118156151 1.27111130059953669758
H  -2.53917188151477724034 0.79087996563746265632 -0.39335455638605365536
