
                                 *****************
                                 * O   R   C   A *
                                 *****************

                                            #,                                       
                                            ###                                      
                                            ####                                     
                                            #####                                    
                                            ######                                   
                                           ########,                                 
                                     ,,################,,,,,                         
                               ,,#################################,,                 
                          ,,##########################################,,             
                       ,#########################################, ''#####,          
                    ,#############################################,,   '####,        
                  ,##################################################,,,,####,       
                ,###########''''           ''''###############################       
              ,#####''   ,,,,##########,,,,          '''####'''          '####       
            ,##' ,,,,###########################,,,                        '##       
           ' ,,###''''                  '''############,,,                           
         ,,##''                                '''############,,,,        ,,,,,,###''
      ,#''                                            '''#######################'''  
     '                                                          ''''####''''         
             ,#######,   #######,   ,#######,      ##                                
            ,#'     '#,  ##    ##  ,#'     '#,    #''#        ,####,    ,#,          
            ##       ##  ##   ,#'  ##            #'  '#       #'       ,# #          
            ##       ##  #######   ##           ,######,      #####,      #          
            '#,     ,#'  ##    ##  '#,     ,#' ,#      #,     #,   #      #          
             '#######'   ##     ##  '#######'  #'      '#     '####' #    #          



                #########################################################
                #                        -***-                          #
                #          Department of theory and spectroscopy        #
                #                                                       #
                #                      Frank Neese                      #
                #                                                       #
                #     Directorship, Architecture, Infrastructure        #
                #                    SHARK, DRIVERS                     #
                #        Core code/Algorithms in most modules           #
                #                                                       #
                #        Max Planck Institute fuer Kohlenforschung      #
                #                Kaiser Wilhelm Platz 1                 #
                #                 D-45470 Muelheim/Ruhr                 #
                #                      Germany                          #
                #                                                       #
                #                  All rights reserved                  #
                #                        -***-                          #
                #########################################################


                         Program Version 6.1.1  -  RELEASE   -
                                (GIT: $487d211c$)
                          ($2025-11-21 10:33:24 +0100$)


 With contributions from (in alphabetic order):
[Max-Planck-Institut fuer Kohlenforschung]                               
  Daniel Aravena         : Magnetic Suceptibility                        
  Michael Atanasov       : Ab Initio Ligand Field Theory (pilot matlab implementation)
  Alexander A. Auer      : GIAO ZORA, VPT2 properties, NMR spectrum      
  Ute Becker             : All parallelization in ORCA, NUMFREQ, NUMCALC 
  Giovanni Bistoni       : ED, misc. LED, open-shell LED, HFLD           
  Dmytro Bykov           : pre 5.0 version of the SCF Hessian            
  Marcos Casanova-Páez   : Triplet and SCS-CIS(D). UHF-(DLPNO)-IP/EA/STEOM-CCSD. UHF-CVS-IP/STEOM-CCSD   
  Vijay G. Chilkuri      : MRCI spin determinant printing, contributions to CSF-ICE 
  Pauline Colinet        : FMM embedding                                 
  Dipayan Datta          : RHF DLPNO-CCSD density                        
  Achintya Kumar Dutta   : EOM-CC, STEOM-CC                              
  Nicolas Foglia         : Exact transition moments, OPA infrastructure, MCD improvements    
  Dmitry Ganyushin       : Spin-Orbit,Spin-Spin,Magnetic field MRCI      
  Miquel Garcia-Rates    : C-PCM and meta-GGA Hessian, CCSD/C-PCM, Gaussian charge scheme 
  Tiago L. C. Gouveia    : GS-ROHF, GS-ROCIS                             
  Yang Guo               : DLPNO-NEVPT2, F12-NEVPT2, CIM, IAO-localization        
  Andreas Hansen         : Spin unrestricted coupled pair/coupled cluster methods 
  Ingolf Harden          : AUTO-CI MPn and infrastructure                
  Benjamin Helmich-Paris : MC-RPA, TRAH-(SCF,CASSCF), AVAS, COSX integrals, SCF dyn. polar., MC-PDFT, srDFT 
  Lee Huntington         : MR-EOM, pCC                                   
  Robert Izsak           : Overlap fitted RIJCOSX, COSX-SCS-MP3, EOM     
  Riya Kayal             : Wick's Theorem for AUTO-CI, AUTO-CI UHF-CCSDT 
  Emily Kempfer          : AUTO-CI RHF CISDT and CCSDT, approximate NEVPT4
  Christian Kollmar      : KDIIS, OOCD, Brueckner-CCSD(T), CCSD density, CASPT2, CASPT2-K, improved NEVPT2 
  Axel Koslowski         : Symmetry handling                             
  Simone Kossmann        : meta-GGA functionals, TD-DFT gradient, OOMP2, (MP2 Hessian; deprecated post 5.0) 
  Lucas Lang             : DCDCAS, Hyperfine gauge corrections, ICE-SOC+SSC
  Marvin Lechner         : AUTO-CI (C++ implementation), FIC-MRCC        
  Spencer Leger          : CASSCF response                               
  Dagmar Lenk            : GEPOL surface, SMD, ORCA-2-JSON               
  Dimitrios Liakos       : Extrapolation schemes; Compound Job, Property file
  Dimitrios Manganas     : Further ROCIS development; embedding schemes. LFT, Crystal Embedding 
  Dimitrios Pantazis     : SARC Basis sets                               
  Anastasios Papadopoulos: AUTO-CI, single reference methods and gradients 
  Taras Petrenko         : pre 6.0 DFT Hessian and TD-DFT gradient,  ECA, NRVS 
  Petra Pikulova         : Analytic Raman intensities                    
  Peter Pinski           : DLPNO-MP2, DLPNO-MP2 Gradient                 
  Shashank Vittal Rao    : ES-AILFT, MagRelax                            
  Christoph Reimann      : Effective Core Potentials                     
  Marius Retegan         : Local ZFS, SOC                                
  Christoph Riplinger    : Optimizer, TS searches, QM/MM, DLPNO-CCSD(T), (RO)-DLPNO pert. Triples 
  Michael Roemelt        : Original ROCIS implementation, recursive CI coupling coefficients
  Masaaki Saitow         : Open-shell DLPNO-CCSD energy and density      
  Barbara Sandhoefer     : DKH picture change effects                    
  Yorick L. A. Schmerwitz: GMF and freeze-and-release deltaSCF, NEB S-IDPP initial path                    
  Kantharuban Sivalingam : CASSCF convergence/infrastructure, NEVPT2, NEVPT3, NEVPT4(SD), FIC-MRCI and CEPA variants
  Bernardo de Souza      : ESD, SOC TD-DFT                               
  Georgi L. Stoychev     : AutoAux, RI-MP2 NMR, DLPNO-MP2 response, X2C  
  Van Anh Tran           : RI-MP2 g-tensors                              
  Willem Van den Heuvel  : Paramagnetic NMR                              
  Zikuan Wang            : NOTCH, Electric field optimization            
  Frank Wennmohs         : Technical directorship and infrastructure     
  Hang Xu                : AUTO-CI-Response properties                   
                                                                         
[FACCTs GmbH]                                                            
  Markus Bursch, Nicolas Foglia, Miquel Garcia-Rates, Ingolf Harden, Hagen Neugebauer, Anastasios Papadopoulos, 
  Christoph Riplinger, Bernardo de Souza, Georgi L. Stoychev                                                    
                                                                 
  APM, various basis sets, CI-OPT, improved COSX, DLPNO-Multilevel,           
  DOCKER, DRACO, updates on ESD, Fragmentator, GOAT, IRC, LR-CPCM, L-BFGS, MBIS, meta-GGA TD-DFT gradient, ML-optimized integration grids, 
  MM, NACMEs, nearIR, NEB, NEB-TS, NL-DFT gradient (VV10), 2- and 3-layer-ONIOM, interface openCOSMO-RS, QMMM,   
  Crystal-QMMM, RESP, rigid body optimization, SF, symmetry and pop. for TD-DFT, various functionals, SOLVATOR                                   
                                                                         
[Other institutions]                                                     
  V. Asgeirsson          : NEB                                           
  Christoph Bannwarth    : sTDA-DFT, sTD-DFT, PBEh-3c, B97-3c, D3        
  Giovanni Bistoni       : ETS/NOCV, ADLD/ADEX, COVALED                  
  Martin Brehm           : Molecular dynamics                            
  Ronald Cardenas        : ETS/NOCV                                      
  Martina Colucci        : COVALED                                       
  Sebastian Ehlert       : rSCAN, r2SCAN, r2SCAN-3c, D4, dhf basis sets  
  Marvin Friede          : D4 for Fr, Ra, Ac-Lr                          
  Lars Goerigk           : TD-DFT with DH, B97 family of functionals     
  Stefan Grimme          : VdW corrections, initial TS optimization, DFT functionals, gCP, sTDA/sTD-DF 
  Waldemar Hujo          : DFT-NL                                        
  H. Jonsson             : NEB                                           
  Holger Kruse           : gCP                                           
  Marcel Mueller         : wB97X-3c, vDZP basis set                      
  Hagen Neugebauer       : wr2SCAN, Native XTB                           
  Gianluca Regni         : ADLD/ADEX                                     
  Tobias Risthaus        : pre 6.0 range-separated hybrid DFT and stability analysis
  Lukas Wittmann         : regularized MP2, r2SCAN double-hybrids, wr2SCAN        
                                                                         
We gratefully acknowledge several colleagues who have allowed us to      
interface, adapt or use parts of their codes:                            
  Ed Valeev, F. Pavosevic, A. Kumar             : LibInt (2-el integral package), F12 methods 
  Garnet Chan, S. Sharma, J. Yang, R. Olivares  : DMRG                   
  Ulf Ekstrom                                   : XCFun DFT Library      
  Mihaly Kallay                                 : mrcc  (arbitrary order and MRCC methods)
  Frank Weinhold                                : gennbo (NPA and NBO analysis)           
  Simon Mueller                                 : openCOSMO-RS                            
  Christopher J. Cramer and Donald G. Truhlar   : smd solvation model                     
  S Lehtola, MJT Oliveira, MAL Marques          : LibXC Library                           
  Liviu Ungur et al                             : ANISO software                          


 Your calculation uses the libint2 library for the computation of 2-el integrals
 For citations please refer to: http://libint.valeyev.net

 Your ORCA version has been built with support for libXC version: 7.0.0
 For citations please refer to: https://libxc.gitlab.io

 This ORCA versions uses:
   CBLAS   interface :  Fast vector & matrix operations
   LAPACKE interface :  Fast linear algebra routines
   SCALAPACK package :  Parallel linear algebra routines
   Shared memory     :  Shared parallel matrices
   BLAS/LAPACK       :  OpenBLAS 0.3.29  USE64BITINT DYNAMIC_ARCH NO_AFFINITY Zen SINGLE_THREADED
        Core in use  :  Zen
   Copyright (c) 2011-2014, The OpenBLAS Project


  ***********************************
  * Starting time: Fri Sep 11 13:10:17 2026
  * Host name:     a2-7
  * Process ID:    1705185
  * Working dir.:  /tmp/lscratch/tns97255/48098761/out/1_GOAT
  ***********************************

NOTE: MaxCore=5700 MB was set to SCF,MP2,MDCI,CIPSI,MRCI,RASCI and CIS
      => If you want to overwrite this, your respective input block should be placed after the MaxCore statement
Your calculation utilizes the semiempirical GFN2-xTB method
Please cite in your paper:
Bannwarth, C.; Ehlert S.; Grimme, S. J. Chem. Theory Comput. 2019, 15, 1652.
   

================================================================================

================================================================================
                                        WARNINGS
                       Please study these warnings very carefully!
================================================================================


================================================================================
 STARTING AUTOMATIC FRAGMENTATION: 
================================================================================

WARNING: Geometry Optimization
  ===> : Switching off AutoStart
         For restart on a previous wavefunction, please use MOREAD

WARNING: Found dipole moment calculation with XTB calculation
  ===> : Switching off dipole moment calculation


================================================================================
                                       INPUT FILE
================================================================================
NAME = goat.inp
|  1> !xtb
|  2> !goat
|  3> %maxcore 5700
|  4> %pal
|  5>     nprocs 8
|  6> end
|  7> 
|  8> %output
|  9>     jsonpropfile True
| 10>     jsongbwfile True
| 11> end
| 12> 
| 13> * xyz 0 1
| 14> C             2.4056202467861545             0.6527597985444261            -0.1326511140953392
| 15> C             1.2249274098610177            -0.2279542651909001             0.1771698006479957
| 16> C             0.0455829860524709            -0.0226930059264172            -0.4037925562812949
| 17> C            -1.1527497505162956            -0.8659683657711560            -0.1308750449715099
| 18> C            -2.2036860897191994             0.0982458439228839             0.4244404863579518
| 19> H             3.3205202151522428             0.0256168971348930            -0.2570928269969603
| 20> H             2.1898242476581782             1.1111147304019593            -1.1205342918955470
| 21> H             2.5224652831320165             1.4337966559935067             0.6589891982460815
| 22> H             1.3854143068453530            -1.0290500185967144             0.8907642601157847
| 23> H            -0.0554991563221660             0.7870315620701920            -1.1036846898396597
| 24> H            -1.5187652904061157            -1.2371397858908908            -1.1208699551390597
| 25> H            -0.9428057386523200            -1.6964075457028920             0.5449770238788456
| 26> H            -3.0122072100481101            -0.4604503301935601             0.9362284160004679
| 27> H            -1.6501797025123797             0.7732497108840489             1.1113623239353652
| 28> H            -2.5584617573108419             0.6578481183206125            -0.4744310299631382
| 29> *
| 30> 
| 31>                          ****END OF INPUT****
================================================================================

                       *****************************
                       * Geometry Optimization Run *
                       *****************************


                       *********************************
                       *              GOAT             *
                       * Global Optimization Algorithm *
                       *********************************

Geometry optimization settings:
Update method            Update   .... BFGS
Choice of coordinates    CoordSys .... (2022) Redundant Internals
Initial Hessian          InHess   .... Almloef's Model
Max. no of cycles        MaxIter  .... 50

Convergence Tolerances:
Energy Change            TolE     ....  5.0000e-06 Eh
Max. Gradient            TolMAXG  ....  3.0000e-04 Eh/bohr
RMS Gradient             TolRMSG  ....  1.0000e-04 Eh/bohr
Max. Displacement        TolMAXD  ....  4.0000e-03 bohr
RMS Displacement         TolRMSD  ....  2.0000e-03 bohr
Strict Convergence                .... True

------------------------------------------------------------------------------
                        ORCA OPTIMIZATION COORDINATE SETUP
------------------------------------------------------------------------------

The optimization will be done in redundant internal coordinates (2022)
Making redundant internal coordinates   ...  (2022 redundants) done
Evaluating the initial hessian          ...  (Almloef) done
Evaluating the coordinates              ...  done
Calculating the B-matrix                .... done
Calculating the G-matrix                .... done
The number of degrees of freedom        ....   58

    -----------------------------------------------------------------
                    Redundant Internal Coordinates


    -----------------------------------------------------------------
         Definition                    Initial Value    Approx d2E/dq
    -----------------------------------------------------------------
      1. B(C   1,C   0)                  1.5052         0.409181   
      2. B(C   2,C   1)                  1.3306         0.777148   
      3. B(C   3,C   2)                  1.4905         0.431909   
      4. B(C   4,C   3)                  1.5305         0.372835   
      5. B(H   5,C   0)                  1.1162         0.327092   
      6. B(H   6,C   0)                  1.1102         0.334331   
      7. B(H   7,C   0)                  1.1182         0.324665   
      8. B(H   8,C   1)                  1.0848         0.367085   
      9. B(H   9,C   2)                  1.0750         0.380438   
     10. B(H  10,C   3)                  1.1189         0.323888   
     11. B(H  11,C   3)                  1.0911         0.358658   
     12. B(H  12,C   4)                  1.1080         0.336997   
     13. B(H  13,C   4)                  1.1108         0.333618   
     14. B(H  14,C   4)                  1.1167         0.326471   
     15. A(H   6,C   0,H   7)          111.2167         0.282876   
     16. A(C   1,C   0,H   5)          109.7033         0.324047   
     17. A(C   1,C   0,H   6)          105.7981         0.325215   
     18. A(C   1,C   0,H   7)          110.1775         0.323651   
     19. A(H   5,C   0,H   6)          106.9830         0.283204   
     20. A(H   5,C   0,H   7)          112.6893         0.281918   
     21. A(C   2,C   1,H   8)          122.1588         0.367964   
     22. A(C   0,C   1,H   8)          116.8368         0.330265   
     23. A(C   0,C   1,C   2)          121.0043         0.419567   
     24. A(C   3,C   2,H   9)          118.0179         0.335218   
     25. A(C   1,C   2,H   9)          118.9326         0.370230   
     26. A(C   1,C   2,C   3)          123.0495         0.423637   
     27. A(C   4,C   3,H  10)          107.7825         0.318638   
     28. A(C   2,C   3,H  10)          106.7791         0.326411   
     29. A(C   2,C   3,C   4)          105.1923         0.372384   
     30. A(H  10,C   3,H  11)          111.0107         0.285876   
     31. A(C   4,C   3,H  11)          112.7595         0.324000   
     32. A(C   2,C   3,H  11)          112.9128         0.331955   
     33. A(H  13,C   4,H  14)          110.5834         0.283026   
     34. A(H  12,C   4,H  14)          113.1191         0.283469   
     35. A(C   3,C   4,H  14)          103.9927         0.319051   
     36. A(H  12,C   4,H  13)          112.6045         0.284425   
     37. A(C   3,C   4,H  13)          105.3696         0.320182   
     38. A(C   3,C   4,H  12)          110.5463         0.320709   
     39. D(C   2,C   1,C   0,H   5)   -137.0696         0.012402   
     40. D(C   2,C   1,C   0,H   6)    -21.9977         0.012402   
     41. D(H   8,C   1,C   0,H   6)    158.0025         0.012402   
     42. D(C   2,C   1,C   0,H   7)     98.3116         0.012402   
     43. D(H   8,C   1,C   0,H   5)     42.9306         0.012402   
     44. D(C   3,C   2,C   1,C   0)    179.9997         0.043378   
     45. D(C   3,C   2,C   1,H   8)     -0.0005         0.043378   
     46. D(H   9,C   2,C   1,H   8)    179.9997         0.043378   
     47. D(H   9,C   2,C   1,C   0)     -0.0000         0.043378   
     48. D(H  11,C   3,C   2,C   1)     -3.3676         0.013774   
     49. D(H  10,C   3,C   2,H   9)     54.3553         0.013774   
     50. D(H  10,C   3,C   2,C   1)   -125.6445         0.013774   
     51. D(C   4,C   3,C   2,H   9)    -60.0013         0.013774   
     52. D(C   4,C   3,C   2,C   1)    119.9989         0.013774   
     53. D(H  12,C   4,C   3,C   2)   -163.0730         0.011102   
     54. D(H  13,C   4,C   3,H  11)     82.3109         0.011102   
     55. D(H  13,C   4,C   3,H  10)   -154.8091         0.011102   
     56. D(H  13,C   4,C   3,C   2)    -41.1534         0.011102   
     57. D(H  12,C   4,C   3,H  11)    -39.6087         0.011102   
     58. D(H  12,C   4,C   3,H  10)     83.2713         0.011102   
    -----------------------------------------------------------------

Number of atoms                         .... 15
Number of degrees of freedom            .... 58


         *************************************************************
         *                GEOMETRY OPTIMIZATION CYCLE   1            *
         *************************************************************
---------------------------------
CARTESIAN COORDINATES (ANGSTROEM)
---------------------------------
  C     2.405620    0.652760   -0.132651
  C     1.224927   -0.227954    0.177170
  C     0.045583   -0.022693   -0.403793
  C    -1.152750   -0.865968   -0.130875
  C    -2.203686    0.098246    0.424440
  H     3.320520    0.025617   -0.257093
  H     2.189824    1.111115   -1.120534
  H     2.522465    1.433797    0.658989
  H     1.385414   -1.029050    0.890764
  H    -0.055499    0.787032   -1.103685
  H    -1.518765   -1.237140   -1.120870
  H    -0.942806   -1.696408    0.544977
  H    -3.012207   -0.460450    0.936228
  H    -1.650180    0.773250    1.111362
  H    -2.558462    0.657848   -0.474431

----------------------------
CARTESIAN COORDINATES (A.U.)
----------------------------
  NO LB    ZA    FRAG    MASS        X           Y           Z
   0 C   6.0000    1    12.011    4.545963    1.233537   -0.250674
   1 C   6.0000    1    12.011    2.314777   -0.430771    0.334802
   2 C   6.0000    1    12.011    0.086139   -0.042884   -0.763057
   3 C   6.0000    1    12.011   -2.178381   -1.636443   -0.247318
   4 C   6.0000    1    12.011   -4.164363    0.185658    0.802076
   5 H   1.0000    1     1.008    6.274874    0.048409   -0.485835
   6 H   1.0000    1     1.008    4.138168    2.099703   -2.117503
   7 H   1.0000    1     1.008    4.766769    2.709483    1.245309
   8 H   1.0000    1     1.008    2.618054   -1.944623    1.683301
   9 H   1.0000    1     1.008   -0.104878    1.487274   -2.085662
  10 H   1.0000    1     1.008   -2.870050   -2.337855   -2.118137
  11 H   1.0000    1     1.008   -1.781645   -3.205746    1.029857
  12 H   1.0000    1     1.008   -5.692247   -0.870125    1.769215
  13 H   1.0000    1     1.008   -3.118388    1.461230    2.100170
  14 H   1.0000    1     1.008   -4.834792    1.243153   -0.896545

      -----------------------------------------------------------      
     |                   =====================                   |     
     |                           x T B                           |     
     |                   =====================                   |     
     |                         S. Grimme                         |     
     |          Mulliken Center for Theoretical Chemistry        |     
     |                    University of Bonn                     |     
      -----------------------------------------------------------      

   * xtb version 6.7.1 (edcfbbe) compiled by 'albert@albert-system' on 2024-07-22

   xtb is free software: you can redistribute it and/or modify it under
   the terms of the GNU Lesser General Public License as published by
   the Free Software Foundation, either version 3 of the License, or
   (at your option) any later version.
   
   xtb is distributed in the hope that it will be useful,
   but WITHOUT ANY WARRANTY; without even the implied warranty of
   MERCHANTABILITY or FITNESS FOR A PARTICULAR PURPOSE.  See the
   GNU Lesser General Public License for more details.
   
   Cite this work as:
   * C. Bannwarth, E. Caldeweyher, S. Ehlert, A. Hansen, P. Pracht,
     J. Seibert, S. Spicher, S. Grimme, WIREs Comput. Mol. Sci., 2020, 11,
     e01493. DOI: 10.1002/wcms.1493
   
   for GFN2-xTB:
   * C. Bannwarth, S. Ehlert and S. Grimme., J. Chem. Theory Comput., 2019,
     15, 1652-1671. DOI: 10.1021/acs.jctc.8b01176
   for GFN1-xTB:
   * S. Grimme, C. Bannwarth, P. Shushkov, J. Chem. Theory Comput., 2017,
     13, 1989-2009. DOI: 10.1021/acs.jctc.7b00118
   for GFN0-xTB:
   * P. Pracht, E. Caldeweyher, S. Ehlert, S. Grimme, ChemRxiv, 2019, preprint.
     DOI: 10.26434/chemrxiv.8326202.v1
   for GFN-FF:
   * S. Spicher and S. Grimme, Angew. Chem. Int. Ed., 2020, 59, 15665-15673.
     DOI: 10.1002/anie.202004239
   
   for ALPB and GBSA implicit solvation:
   * S. Ehlert, M. Stahn, S. Spicher, S. Grimme, J. Chem. Theory Comput.,
     2021, 17, 4250-4261. DOI: 10.1021/acs.jctc.1c00471
   
   for ddCOSMO and CPCM-X implicit solvation:
   * M. Stahn, S. Ehlert, S. Grimme, J. Phys. Chem. A,
     2023, XX, XXXX-XXXX. DOI: 10.1021/acs.jpca.3c04382
   
   for DFT-D4:
   * E. Caldeweyher, C. Bannwarth and S. Grimme, J. Chem. Phys., 2017,
     147, 034112. DOI: 10.1063/1.4993215
   * E. Caldeweyher, S. Ehlert, A. Hansen, H. Neugebauer, S. Spicher,
     C. Bannwarth and S. Grimme, J. Chem. Phys., 2019, 150, 154122.
     DOI: 10.1063/1.5090222
   * E. Caldeweyher, J.-M. Mewes, S. Ehlert and S. Grimme, Phys. Chem. Chem. Phys.
     2020, 22, 8499-8512. DOI: 10.1039/D0CP00502A
   
   for sTDA-xTB:
   * S. Grimme and C. Bannwarth, J. Chem. Phys., 2016, 145, 054103.
     DOI: 10.1063/1.4959605
   
   in the mass-spec context:
   * V. Asgeirsson, C. Bauer and S. Grimme, Chem. Sci., 2017, 8, 4879.
     DOI: 10.1039/c7sc00601b
   * J. Koopman and S. Grimme, ACS Omega 2019, 4, 12, 15120-15133.
     DOI: 10.1021/acsomega.9b02011
   
   for metadynamics refer to:
   * S. Grimme, J. Chem. Theory Comput., 2019, 155, 2847-2862
     DOI: 10.1021/acs.jctc.9b00143
   
   for SPH calculations refer to:
   * S. Spicher and S. Grimme, J. Chem. Theory Comput., 2021, 17, 1701-1714
     DOI: 10.1021/acs.jctc.0c01306
   
   for ONIOM refer to:
   * C. Plett, A. Katbashev, S. Ehlert, S. Grimme, M. Bursch,
     Phys. Chem. Chem. Phys., 2023, 25, 17860-17868. DOI: 10.1039/D3CP02178E
   
   for DIPRO refer to:
   * J. Kohn, N. Gildemeister, S. Grimme, D. Fazzi, A. Hansen,
     J. Chem. Phys., 2023, just accepted.
   
   for PTB refer to:
   * S. Grimme, M. Mueller, A. Hansen, J. Chem. Phys., 2023, 158, 124111.
     DOI: 10.1063/5.0137838
   
   with help from (in alphabetical order)
   P. Atkinson, C. Bannwarth, F. Bohle, G. Brandenburg, E. Caldeweyher
   M. Checinski, S. Dohm, S. Ehlert, S. Ehrlich, I. Gerasimov, C. Hölzer
   A. Katbashev, J. Kohn, J. Koopman, C. Lavigne, S. Lehtola, F. März, M. Müller,
   F. Musil, H. Neugebauer, J. Pisarek, C. Plett, P. Pracht, F. Pultar,
   J. Seibert, P. Shushkov, S. Spicher, M. Stahn, M. Steiner, T. Strunk,
   J. Stückrath, T. Rose, and J. Unsleber
   
 * started run on 2026/09/11 at 13:10:19.298     
   ID    Z sym.   atoms
    1    6 C      1-5
    2    1 H      6-15

           -------------------------------------------------
          |                Calculation Setup                |
           -------------------------------------------------

          program call               : /apps/eb/ORCA/6.1.1-gompi-2023b-avx2/bin/otool_xtb goat_XTB.xyz --grad -c 0 -u 0 -P 8 --namespace goat --input goat_XTB.input.tmp --acc 0.200000
          hostname                   : a2-7
          calculation namespace      : goat
          coordinate file            : goat_XTB.xyz
          omp threads                :                     8


           -------------------------------------------------
          |                 G F N 2 - x T B                 |
           -------------------------------------------------

        Reference                      10.1021/acs.jctc.8b01176
      * Hamiltonian:
        H0-scaling (s, p, d)           1.850000    2.230000    2.230000
        zeta-weighting                 0.500000
      * Dispersion:
        s8                             2.700000
        a1                             0.520000
        a2                             5.000000
        s9                             5.000000
      * Repulsion:
        kExp                           1.500000    1.000000
        rExp                           1.000000
      * Coulomb:
        alpha                          2.000000
        third order                    shell-resolved
        anisotropic                    true
        a3                             3.000000
        a5                             4.000000
        cn-shift                       1.200000
        cn-exp                         4.000000
        max-rad                        5.000000


          ...................................................
          :                      SETUP                      :
          :.................................................:
          :  # basis functions                  30          :
          :  # atomic orbitals                  30          :
          :  # shells                           20          :
          :  # electrons                        30          :
          :  max. iterations                   250          :
          :  Hamiltonian                  GFN2-xTB          :
          :  restarted?                      false          :
          :  GBSA solvation                  false          :
          :  PC potential                    false          :
          :  electronic temp.          300.0000000     K    :
          :  accuracy                    0.2000000          :
          :  -> integral cutoff          0.3198970E+02      :
          :  -> integral neglect         0.2000000E-08      :
          :  -> SCF convergence          0.2000000E-06 Eh   :
          :  -> wf. convergence          0.2000000E-04 e    :
          :  Broyden damping             0.4000000          :
          :  net charge                          0          :
          :  unpaired electrons                  0          :
          ...................................................

 iter      E             dE          RMSdq      gap      omega  full diag
   1    -15.9765880 -0.159766E+02  0.314E+00    5.25       0.0  T
   2    -16.0106941 -0.341061E-01  0.169E+00    5.19       1.0  T
   3    -16.0115104 -0.816325E-03  0.719E-01    5.15       1.0  T
   4    -16.0115348 -0.243618E-04  0.128E-01    5.15       1.0  T
   5    -16.0116080 -0.732184E-04  0.814E-02    5.15       1.0  T
   6    -16.0116590 -0.510505E-04  0.346E-02    5.15       1.0  T
   7    -16.0116607 -0.166811E-05  0.244E-03    5.15      10.6  T
   8    -16.0116607 -0.213846E-07  0.107E-03    5.15      24.1  T
   9    -16.0116607 -0.746891E-09  0.221E-04    5.15     116.8  T
  10    -16.0116607 -0.119581E-09  0.909E-05    5.15     283.9  T
  11    -16.0116607 -0.495248E-11  0.139E-05    5.15    1859.5  T

   *** convergence criteria satisfied after 11 iterations ***

         #    Occupation            Energy/Eh            Energy/eV
      -------------------------------------------------------------
         1        2.0000           -0.6205833             -16.8869
       ...           ...                  ...                  ...
         9        2.0000           -0.4735318             -12.8855
        10        2.0000           -0.4638891             -12.6231
        11        2.0000           -0.4521571             -12.3038
        12        2.0000           -0.4374773             -11.9044
        13        2.0000           -0.4282854             -11.6542
        14        2.0000           -0.4203480             -11.4383
        15        2.0000           -0.3807427             -10.3605 (HOMO)
        16                         -0.1916469              -5.2150 (LUMO)
        17                          0.0961524               2.6164
        18                          0.1005965               2.7374
        19                          0.1173742               3.1939
        20                          0.1300382               3.5385
       ...                                ...                  ...
        30                          0.6181829              16.8216
      -------------------------------------------------------------
                  HL-Gap            0.1890958 Eh            5.1456 eV
             Fermi-level           -0.2861948 Eh           -7.7878 eV

 SCC (total)                   0 d,  0 h,  0 min,  0.017 sec
 SCC setup                      ...        0 min,  0.000 sec (  1.265%)
 Dispersion                     ...        0 min,  0.000 sec (  1.573%)
 classical contributions        ...        0 min,  0.000 sec (  0.641%)
 integral evaluation            ...        0 min,  0.001 sec (  4.505%)
 iterations                     ...        0 min,  0.014 sec ( 81.963%)
 molecular gradient             ...        0 min,  0.001 sec (  8.543%)
 printout                       ...        0 min,  0.000 sec (  1.319%)

         :::::::::::::::::::::::::::::::::::::::::::::::::::::
         ::                     SUMMARY                     ::
         :::::::::::::::::::::::::::::::::::::::::::::::::::::
         :: total energy             -15.764787288916 Eh    ::
         :: gradient norm              0.062359222855 Eh/a0 ::
         :: HOMO-LUMO gap              5.145558191970 eV    ::
         ::.................................................::
         :: SCC energy               -16.011654397800 Eh    ::
         :: -> isotropic ES            0.003071800518 Eh    ::
         :: -> anisotropic ES          0.005389993557 Eh    ::
         :: -> anisotropic XC          0.013384097240 Eh    ::
         :: -> dispersion             -0.007354657622 Eh    ::
         :: repulsion energy           0.246867108884 Eh    ::
         :: add. restraining           0.000000000000 Eh    ::
         :: total charge               0.000000000000 e     ::
         :::::::::::::::::::::::::::::::::::::::::::::::::::::


Property printout bound to 'properties.out'

           -------------------------------------------------
          | TOTAL ENERGY              -15.764787288916 Eh   |
          | GRADIENT NORM               0.062359222855 Eh/α |
          | HOMO-LUMO GAP               5.145558191970 eV   |
           -------------------------------------------------

------------------------------------------------------------------------
 * finished run on 2026/09/11 at 13:10:19.344     
------------------------------------------------------------------------
 total:
 * wall-time:     0 d,  0 h,  0 min,  0.045 sec
 *  cpu-time:     0 d,  0 h,  0 min,  0.186 sec
 * ratio c/w:     4.080 speedup
 SCF:
 * wall-time:     0 d,  0 h,  0 min,  0.017 sec
 *  cpu-time:     0 d,  0 h,  0 min,  0.077 sec
 * ratio c/w:     4.601 speedup


-------------------------   --------------------
FINAL SINGLE POINT ENERGY       -15.764787288920
-------------------------   --------------------


-------------
DIPOLE MOMENT
-------------
                                X             Y             Z
Total Dipole Moment    :     -0.02300       0.04200      -0.02500
                        -----------------------------------------
Magnitude (a.u.)       :      0.05402
Magnitude (Debye)      :      0.13730


------------------
CARTESIAN GRADIENT
------------------

   1   C   :   -0.000690347    0.003546231    0.007356597
   2   C   :    0.000144674   -0.007694764    0.004789170
   3   C   :   -0.020028383    0.017519141   -0.010701291
   4   C   :    0.007755904   -0.003656128    0.019385046
   5   C   :   -0.001297980   -0.000554515    0.004802800
   6   H   :    0.011041024   -0.013135626   -0.007352297
   7   H   :   -0.007150065   -0.002115547   -0.014172793
   8   H   :   -0.003382685    0.013172099    0.014499054
   9   H   :    0.002232672   -0.002280376    0.001735532
  10   H   :    0.003735406   -0.001552816    0.002497049
  11   H   :   -0.003782433    0.003764583   -0.014993800
  12   H   :   -0.001167114   -0.002595605    0.002627035
  13   H   :   -0.007443790   -0.013150286    0.007049388
  14   H   :    0.017107520    0.005788003    0.004715696
  15   H   :    0.002925599    0.002945607   -0.022237185

Difference to translation invariance:
           :   -0.0000000000    0.0000000000    0.0000000000

Difference to rotation invariance:
           :   -0.0000000038   -0.0000000019    0.0000000079

Norm of the Cartesian gradient     ...    0.0623592229
RMS gradient                       ...    0.0092959641
MAX gradient                       ...    0.0222371852
------------------------------------------------------------------------------
                         ORCA GEOMETRY RELAXATION STEP
------------------------------------------------------------------------------

Reading the OPT-File                    .... done
Getting information on internals        .... done
Copying old internal coords+grads       .... done
Making the new internal coordinates     .... (2022 redundants) done
Validating the new internal coordinates .... (2022 redundants) done
Calculating the B-matrix                .... done
Calculating the G,G- and P matrices     .... done
Transforming gradient to internals      .... done
Projecting the internal gradient        .... done
Number of atoms                         ....  15
Number of internal coordinates          ....  58
Current Energy                          ....   -15.764787289 Eh
Current gradient norm                   ....     0.062359223 Eh/bohr
Maximum allowed component of the step   ....  0.300
Current trust radius                    ....  0.300
Evaluating the initial hessian          ....  (Almloef) done
Projecting the Hessian                  .... done
Forming the augmented Hessian           .... done
Diagonalizing the augmented Hessian     .... done
Last element of RFO vector              ....  0.969283555
Lowest eigenvalues of augmented Hessian:
 -0.013368817  0.011457579  0.012469193  0.013774570  0.027251512
Length of the computed step             ....  0.253739895
The final length of the internal step   ....  0.253739895
Converting the step to Cartesian space:
 Initial RMS(Int)=    0.0333176804
Transforming coordinates:
 Iter   0:  RMS(Cart)=    0.0679285285 RMS(Int)=    0.8215585515
 Iter   5:  RMS(Cart)=    0.0000000706 RMS(Int)=    0.0000000440
done
Storing new coordinates                 .... done

                                .--------------------.
          ----------------------|Geometry convergence|-------------------------
          Item                value                   Tolerance       Converged
          ---------------------------------------------------------------------
          RMS gradient        0.0084062175            0.0001000000      NO
          MAX gradient        0.0191117218            0.0003000000      NO
          RMS step            0.0333176804            0.0020000000      NO
          MAX step            0.0879858224            0.0040000000      NO
          -------------------------------------------------------------------------
          ........................................................
          Max(Bonds)      0.0299      Max(Angles)    3.34
          Max(Dihed)        5.04      Max(Improp)    0.00
          ---------------------------------------------------------------------

    ---------------------------------------------------------------------------
                         Redundant Internal Coordinates
                            (Angstroem and degrees)

        Definition                    Value    dE/dq     Step     New-Value
    ----------------------------------------------------------------------------
     1. B(C   1,C   0)                1.5052  0.000648 -0.0008    1.5044   
     2. B(C   2,C   1)                1.3306  0.006251 -0.0042    1.3264   
     3. B(C   3,C   2)                1.4905 -0.006868  0.0082    1.4987   
     4. B(C   4,C   3)                1.5305 -0.012942  0.0177    1.5483   
     5. B(H   5,C   0)                1.1162  0.017250 -0.0268    1.0894   
     6. B(H   6,C   0)                1.1102  0.013128 -0.0200    1.0902   
     7. B(H   7,C   0)                1.1182  0.019112 -0.0299    1.0883   
     8. B(H   8,C   1)                1.0848  0.003156 -0.0044    1.0804   
     9. B(H   9,C   2)                1.0750 -0.003146  0.0042    1.0793   
    10. B(H  10,C   3)                1.1189  0.013255 -0.0208    1.0981   
    11. B(H  11,C   3)                1.0911  0.003378 -0.0048    1.0863   
    12. B(H  12,C   4)                1.1080  0.015318 -0.0231    1.0849   
    13. B(H  13,C   4)                1.1108  0.014958 -0.0228    1.0880   
    14. B(H  14,C   4)                1.1167  0.018446 -0.0287    1.0880   
    15. A(H   6,C   0,H   7)          111.22  0.006240   -1.15    110.07   
    16. A(C   1,C   0,H   5)          109.70 -0.002175    0.40    110.11   
    17. A(C   1,C   0,H   6)          105.80 -0.012667    2.53    108.33   
    18. A(C   1,C   0,H   7)          110.18 -0.002655    0.18    110.36   
    19. A(H   5,C   0,H   6)          106.98  0.001342    0.65    107.63   
    20. A(H   5,C   0,H   7)          112.69  0.008647   -2.29    110.40   
    21. A(C   2,C   1,H   8)          122.16  0.006936   -0.96    121.20   
    22. A(C   0,C   1,H   8)          116.84  0.003526   -0.50    116.34   
    23. A(C   0,C   1,C   2)          121.00 -0.010462    1.46    122.46   
    24. A(C   3,C   2,H   9)          118.02  0.006739   -1.03    116.99   
    25. A(C   1,C   2,H   9)          118.93 -0.000500    0.15    119.08   
    26. A(C   1,C   2,C   3)          123.05 -0.006239    0.88    123.93   
    27. A(C   4,C   3,H  10)          107.78  0.001220    0.59    108.37   
    28. A(C   2,C   3,H  10)          106.78  0.000384    0.85    107.63   
    29. A(C   2,C   3,C   4)          105.19 -0.017680    3.28    108.47   
    30. A(H  10,C   3,H  11)          111.01  0.001884   -1.70    109.31   
    31. A(C   4,C   3,H  11)          112.76  0.004940   -1.09    111.67   
    32. A(C   2,C   3,H  11)          112.91  0.008009   -1.53    111.38   
    33. A(H  13,C   4,H  14)          110.58  0.009314   -1.53    109.06   
    34. A(H  12,C   4,H  14)          113.12  0.011885   -2.00    111.12   
    35. A(C   3,C   4,H  14)          103.99 -0.018052    3.34    107.33   
    36. A(H  12,C   4,H  13)          112.60  0.010050   -2.09    110.51   
    37. A(C   3,C   4,H  13)          105.37 -0.013971    2.42    107.79   
    38. A(C   3,C   4,H  12)          110.55 -0.003510    0.65    111.20   
    39. D(C   2,C   1,C   0,H   5)   -137.07  0.004099   -0.76   -137.83   
    40. D(C   2,C   1,C   0,H   6)    -22.00 -0.002066    1.52    -20.48   
    41. D(H   8,C   1,C   0,H   6)    158.00 -0.003617    2.75    160.75   
    42. D(C   2,C   1,C   0,H   7)     98.31 -0.003534    1.74    100.05   
    43. D(H   8,C   1,C   0,H   5)     42.93  0.002548    0.47     43.40   
    44. D(C   3,C   2,C   1,C   0)    180.00 -0.001500    1.80    181.80   
    45. D(C   3,C   2,C   1,H   8)     -0.00  0.000134    0.51      0.51   
    46. D(H   9,C   2,C   1,H   8)    180.00  0.000038   -0.33    179.67   
    47. D(H   9,C   2,C   1,C   0)     -0.00 -0.001596    0.97      0.97   
    48. D(H  11,C   3,C   2,C   1)     -3.37  0.003442   -1.27     -4.63   
    49. D(H  10,C   3,C   2,H   9)     54.36 -0.004081    2.06     56.41   
    50. D(H  10,C   3,C   2,C   1)   -125.64 -0.004176    1.23   -124.42   
    51. D(C   4,C   3,C   2,H   9)    -60.00  0.002397   -0.47    -60.47   
    52. D(C   4,C   3,C   2,C   1)    120.00  0.002302   -1.30    118.70   
    53. D(H  12,C   4,C   3,C   2)   -163.07 -0.002252   -1.60   -164.68   
    54. D(H  13,C   4,C   3,H  11)     82.31  0.000188   -2.60     79.71   
    55. D(H  13,C   4,C   3,H  10)   -154.81  0.006662   -5.04   -159.85   
    56. D(H  13,C   4,C   3,C   2)    -41.15 -0.000663   -2.28    -43.43   
    57. D(H  12,C   4,C   3,H  11)    -39.61 -0.001401   -1.92    -41.53   
    58. D(H  12,C   4,C   3,H  10)     83.27  0.005072   -4.37     78.91   
    ----------------------------------------------------------------------------

Geometry step timings:
Preparation and reading OPT file:      0.000 s ( 1.542 %)
Internal coordinates            :      0.000 s ( 1.839 %)
B/P matrices and projection     :      0.000 s (26.097 %)
Hessian update/contruction      :      0.000 s (12.871 %)
Making the step                 :      0.000 s (22.776 %)
Converting the step to Cartesian:      0.000 s ( 4.389 %)
Storing new data                :      0.000 s ( 1.898 %)
Checking convergence            :      0.000 s ( 2.195 %)
Final printing                  :      0.000 s (26.335 %)
Total time                      :      0.002 s

Time for energy+gradient        :      0.059 s
Time for complete geometry iter :      0.062 s

         *************************************************************
         *                GEOMETRY OPTIMIZATION CYCLE   2            *
         *************************************************************
---------------------------------
CARTESIAN COORDINATES (ANGSTROEM)
---------------------------------
  C     2.439152    0.646678   -0.145307
  C     1.245147   -0.219997    0.148746
  C     0.067710   -0.030516   -0.431877
  C    -1.152583   -0.848328   -0.135124
  C    -2.246452    0.090890    0.429206
  H     3.333619    0.031992   -0.239065
  H     2.276407    1.139951   -1.103849
  H     2.570051    1.389477    0.639210
  H     1.388939   -1.001854    0.880352
  H    -0.039073    0.764239   -1.154228
  H    -1.511961   -1.264357   -1.085642
  H    -0.928187   -1.660488    0.550487
  H    -3.040517   -0.474519    0.905454
  H    -1.772746    0.759513    1.144921
  H    -2.629506    0.677317   -0.403283

----------------------------
CARTESIAN COORDINATES (A.U.)
----------------------------
  NO LB    ZA    FRAG    MASS        X           Y           Z
   0 C   6.0000    1    12.011    4.609328    1.222045   -0.274590
   1 C   6.0000    1    12.011    2.352986   -0.415734    0.281089
   2 C   6.0000    1    12.011    0.127953   -0.057667   -0.816129
   3 C   6.0000    1    12.011   -2.178067   -1.603108   -0.255348
   4 C   6.0000    1    12.011   -4.245179    0.171758    0.811081
   5 H   1.0000    1     1.008    6.299626    0.060456   -0.451768
   6 H   1.0000    1     1.008    4.301787    2.154196   -2.085972
   7 H   1.0000    1     1.008    4.856693    2.625731    1.207931
   8 H   1.0000    1     1.008    2.624715   -1.893230    1.663623
   9 H   1.0000    1     1.008   -0.073837    1.444203   -2.181174
  10 H   1.0000    1     1.008   -2.857192   -2.389289   -2.051566
  11 H   1.0000    1     1.008   -1.754019   -3.137867    1.040269
  12 H   1.0000    1     1.008   -5.745744   -0.896711    1.711060
  13 H   1.0000    1     1.008   -3.350005    1.435272    2.163588
  14 H   1.0000    1     1.008   -4.969047    1.279944   -0.762095

      -----------------------------------------------------------      
     |                   =====================                   |     
     |                           x T B                           |     
     |                   =====================                   |     
     |                         S. Grimme                         |     
     |          Mulliken Center for Theoretical Chemistry        |     
     |                    University of Bonn                     |     
      -----------------------------------------------------------      

   * xtb version 6.7.1 (edcfbbe) compiled by 'albert@albert-system' on 2024-07-22

   xtb is free software: you can redistribute it and/or modify it under
   the terms of the GNU Lesser General Public License as published by
   the Free Software Foundation, either version 3 of the License, or
   (at your option) any later version.
   
   xtb is distributed in the hope that it will be useful,
   but WITHOUT ANY WARRANTY; without even the implied warranty of
   MERCHANTABILITY or FITNESS FOR A PARTICULAR PURPOSE.  See the
   GNU Lesser General Public License for more details.
   
   Cite this work as:
   * C. Bannwarth, E. Caldeweyher, S. Ehlert, A. Hansen, P. Pracht,
     J. Seibert, S. Spicher, S. Grimme, WIREs Comput. Mol. Sci., 2020, 11,
     e01493. DOI: 10.1002/wcms.1493
   
   for GFN2-xTB:
   * C. Bannwarth, S. Ehlert and S. Grimme., J. Chem. Theory Comput., 2019,
     15, 1652-1671. DOI: 10.1021/acs.jctc.8b01176
   for GFN1-xTB:
   * S. Grimme, C. Bannwarth, P. Shushkov, J. Chem. Theory Comput., 2017,
     13, 1989-2009. DOI: 10.1021/acs.jctc.7b00118
   for GFN0-xTB:
   * P. Pracht, E. Caldeweyher, S. Ehlert, S. Grimme, ChemRxiv, 2019, preprint.
     DOI: 10.26434/chemrxiv.8326202.v1
   for GFN-FF:
   * S. Spicher and S. Grimme, Angew. Chem. Int. Ed., 2020, 59, 15665-15673.
     DOI: 10.1002/anie.202004239
   
   for ALPB and GBSA implicit solvation:
   * S. Ehlert, M. Stahn, S. Spicher, S. Grimme, J. Chem. Theory Comput.,
     2021, 17, 4250-4261. DOI: 10.1021/acs.jctc.1c00471
   
   for ddCOSMO and CPCM-X implicit solvation:
   * M. Stahn, S. Ehlert, S. Grimme, J. Phys. Chem. A,
     2023, XX, XXXX-XXXX. DOI: 10.1021/acs.jpca.3c04382
   
   for DFT-D4:
   * E. Caldeweyher, C. Bannwarth and S. Grimme, J. Chem. Phys., 2017,
     147, 034112. DOI: 10.1063/1.4993215
   * E. Caldeweyher, S. Ehlert, A. Hansen, H. Neugebauer, S. Spicher,
     C. Bannwarth and S. Grimme, J. Chem. Phys., 2019, 150, 154122.
     DOI: 10.1063/1.5090222
   * E. Caldeweyher, J.-M. Mewes, S. Ehlert and S. Grimme, Phys. Chem. Chem. Phys.
     2020, 22, 8499-8512. DOI: 10.1039/D0CP00502A
   
   for sTDA-xTB:
   * S. Grimme and C. Bannwarth, J. Chem. Phys., 2016, 145, 054103.
     DOI: 10.1063/1.4959605
   
   in the mass-spec context:
   * V. Asgeirsson, C. Bauer and S. Grimme, Chem. Sci., 2017, 8, 4879.
     DOI: 10.1039/c7sc00601b
   * J. Koopman and S. Grimme, ACS Omega 2019, 4, 12, 15120-15133.
     DOI: 10.1021/acsomega.9b02011
   
   for metadynamics refer to:
   * S. Grimme, J. Chem. Theory Comput., 2019, 155, 2847-2862
     DOI: 10.1021/acs.jctc.9b00143
   
   for SPH calculations refer to:
   * S. Spicher and S. Grimme, J. Chem. Theory Comput., 2021, 17, 1701-1714
     DOI: 10.1021/acs.jctc.0c01306
   
   for ONIOM refer to:
   * C. Plett, A. Katbashev, S. Ehlert, S. Grimme, M. Bursch,
     Phys. Chem. Chem. Phys., 2023, 25, 17860-17868. DOI: 10.1039/D3CP02178E
   
   for DIPRO refer to:
   * J. Kohn, N. Gildemeister, S. Grimme, D. Fazzi, A. Hansen,
     J. Chem. Phys., 2023, just accepted.
   
   for PTB refer to:
   * S. Grimme, M. Mueller, A. Hansen, J. Chem. Phys., 2023, 158, 124111.
     DOI: 10.1063/5.0137838
   
   with help from (in alphabetical order)
   P. Atkinson, C. Bannwarth, F. Bohle, G. Brandenburg, E. Caldeweyher
   M. Checinski, S. Dohm, S. Ehlert, S. Ehrlich, I. Gerasimov, C. Hölzer
   A. Katbashev, J. Kohn, J. Koopman, C. Lavigne, S. Lehtola, F. März, M. Müller,
   F. Musil, H. Neugebauer, J. Pisarek, C. Plett, P. Pracht, F. Pultar,
   J. Seibert, P. Shushkov, S. Spicher, M. Stahn, M. Steiner, T. Strunk,
   J. Stückrath, T. Rose, and J. Unsleber
   
 * started run on 2026/09/11 at 13:10:19.359     
   ID    Z sym.   atoms
    1    6 C      1-5
    2    1 H      6-15

           -------------------------------------------------
          |                Calculation Setup                |
           -------------------------------------------------

          program call               : /apps/eb/ORCA/6.1.1-gompi-2023b-avx2/bin/otool_xtb goat_XTB.xyz --grad -c 0 -u 0 -P 8 --namespace goat --input goat_XTB.input.tmp --acc 0.200000
          hostname                   : a2-7
          calculation namespace      : goat
          coordinate file            : goat_XTB.xyz
          omp threads                :                     8


           -------------------------------------------------
          |                 G F N 2 - x T B                 |
           -------------------------------------------------

        Reference                      10.1021/acs.jctc.8b01176
      * Hamiltonian:
        H0-scaling (s, p, d)           1.850000    2.230000    2.230000
        zeta-weighting                 0.500000
      * Dispersion:
        s8                             2.700000
        a1                             0.520000
        a2                             5.000000
        s9                             5.000000
      * Repulsion:
        kExp                           1.500000    1.000000
        rExp                           1.000000
      * Coulomb:
        alpha                          2.000000
        third order                    shell-resolved
        anisotropic                    true
        a3                             3.000000
        a5                             4.000000
        cn-shift                       1.200000
        cn-exp                         4.000000
        max-rad                        5.000000

q/qsh data taken from xtbrestart
CAMM data taken from xtbrestart

          ...................................................
          :                      SETUP                      :
          :.................................................:
          :  # basis functions                  30          :
          :  # atomic orbitals                  30          :
          :  # shells                           20          :
          :  # electrons                        30          :
          :  max. iterations                   250          :
          :  Hamiltonian                  GFN2-xTB          :
          :  restarted?                       true          :
          :  GBSA solvation                  false          :
          :  PC potential                    false          :
          :  electronic temp.          300.0000000     K    :
          :  accuracy                    0.2000000          :
          :  -> integral cutoff          0.3198970E+02      :
          :  -> integral neglect         0.2000000E-08      :
          :  -> SCF convergence          0.2000000E-06 Eh   :
          :  -> wf. convergence          0.2000000E-04 e    :
          :  Broyden damping             0.4000000          :
          :  net charge                          0          :
          :  unpaired electrons                  0          :
          ...................................................

 iter      E             dE          RMSdq      gap      omega  full diag
   1    -16.0401302 -0.160401E+02  0.371E-01    5.21       0.0  T
   2    -16.0402026 -0.723846E-04  0.223E-01    5.20       1.0  T
   3    -16.0400641  0.138527E-03  0.126E-01    5.21       1.0  T
   4    -16.0402349 -0.170846E-03  0.239E-02    5.21       1.1  T
   5    -16.0402395 -0.453393E-05  0.699E-03    5.21       3.7  T
   6    -16.0402395 -0.204288E-07  0.243E-03    5.21      10.6  T
   7    -16.0402395 -0.696611E-08  0.368E-04    5.21      70.2  T
   8    -16.0402395 -0.284675E-09  0.169E-04    5.21     153.2  T
   9    -16.0402395 -0.408846E-10  0.285E-05    5.21     905.4  T

   *** convergence criteria satisfied after 9 iterations ***

         #    Occupation            Energy/Eh            Energy/eV
      -------------------------------------------------------------
         1        2.0000           -0.6186945             -16.8355
       ...           ...                  ...                  ...
         9        2.0000           -0.4753139             -12.9339
        10        2.0000           -0.4658501             -12.6764
        11        2.0000           -0.4541661             -12.3585
        12        2.0000           -0.4388117             -11.9407
        13        2.0000           -0.4268211             -11.6144
        14        2.0000           -0.4224575             -11.4957
        15        2.0000           -0.3818402             -10.3904 (HOMO)
        16                         -0.1904947              -5.1836 (LUMO)
        17                          0.0929150               2.5283
        18                          0.1170357               3.1847
        19                          0.1249751               3.4007
        20                          0.1583883               4.3100
       ...                                ...                  ...
        30                          0.6316436              17.1879
      -------------------------------------------------------------
                  HL-Gap            0.1913455 Eh            5.2068 eV
             Fermi-level           -0.2861674 Eh           -7.7870 eV

 SCC (total)                   0 d,  0 h,  0 min,  0.012 sec
 SCC setup                      ...        0 min,  0.000 sec (  2.036%)
 Dispersion                     ...        0 min,  0.000 sec (  1.823%)
 classical contributions        ...        0 min,  0.000 sec (  0.815%)
 integral evaluation            ...        0 min,  0.001 sec (  5.959%)
 iterations                     ...        0 min,  0.009 sec ( 77.606%)
 molecular gradient             ...        0 min,  0.001 sec (  9.420%)
 printout                       ...        0 min,  0.000 sec (  2.068%)

         :::::::::::::::::::::::::::::::::::::::::::::::::::::
         ::                     SUMMARY                     ::
         :::::::::::::::::::::::::::::::::::::::::::::::::::::
         :: total energy             -15.773198832720 Eh    ::
         :: gradient norm              0.030605364359 Eh/a0 ::
         :: HOMO-LUMO gap              5.206777164119 eV    ::
         ::.................................................::
         :: SCC energy               -16.040233835022 Eh    ::
         :: -> isotropic ES            0.003265940235 Eh    ::
         :: -> anisotropic ES          0.004944536082 Eh    ::
         :: -> anisotropic XC          0.011944025991 Eh    ::
         :: -> dispersion             -0.007280130052 Eh    ::
         :: repulsion energy           0.267035002302 Eh    ::
         :: add. restraining           0.000000000000 Eh    ::
         :: total charge              -0.000000000000 e     ::
         :::::::::::::::::::::::::::::::::::::::::::::::::::::


Property printout bound to 'properties.out'

           -------------------------------------------------
          | TOTAL ENERGY              -15.773198832720 Eh   |
          | GRADIENT NORM               0.030605364359 Eh/α |
          | HOMO-LUMO GAP               5.206777164119 eV   |
           -------------------------------------------------

------------------------------------------------------------------------
 * finished run on 2026/09/11 at 13:10:19.395     
------------------------------------------------------------------------
 total:
 * wall-time:     0 d,  0 h,  0 min,  0.035 sec
 *  cpu-time:     0 d,  0 h,  0 min,  0.166 sec
 * ratio c/w:     4.704 speedup
 SCF:
 * wall-time:     0 d,  0 h,  0 min,  0.012 sec
 *  cpu-time:     0 d,  0 h,  0 min,  0.065 sec
 * ratio c/w:     5.442 speedup


-------------------------   --------------------
FINAL SINGLE POINT ENERGY       -15.773198832720
-------------------------   --------------------


-------------
DIPOLE MOMENT
-------------
                                X             Y             Z
Total Dipole Moment    :     -0.00600       0.04500      -0.00700
                        -----------------------------------------
Magnitude (a.u.)       :      0.04593
Magnitude (Debye)      :      0.11676


------------------
CARTESIAN GRADIENT
------------------

   1   C   :    0.005691844    0.007541663    0.005920551
   2   C   :   -0.000162821   -0.007184879    0.003434855
   3   C   :   -0.007137796    0.009035255   -0.007272563
   4   C   :    0.006341231   -0.010214689    0.007679474
   5   C   :   -0.012034728    0.005821619    0.006003335
   6   H   :   -0.000625888   -0.001997548   -0.003382846
   7   H   :   -0.001700757   -0.003547641   -0.002980498
   8   H   :   -0.002306456    0.000752380    0.000718699
   9   H   :    0.000772059    0.000213252   -0.000493742
  10   H   :    0.002647744   -0.000356016    0.001137346
  11   H   :    0.000402463    0.002939056   -0.004093967
  12   H   :   -0.000964644   -0.000283576   -0.001530398
  13   H   :    0.000951131   -0.001674568    0.001004861
  14   H   :    0.004437503    0.000159037   -0.002083772
  15   H   :    0.003689113   -0.001203346   -0.004061335

Difference to translation invariance:
           :    0.0000000000   -0.0000000000   -0.0000000000

Difference to rotation invariance:
           :   -0.0000000031   -0.0000000056   -0.0000000133

Norm of the Cartesian gradient     ...    0.0306053644
RMS gradient                       ...    0.0045623783
MAX gradient                       ...    0.0120347278
------------------------------------------------------------------------------
                         ORCA GEOMETRY RELAXATION STEP
------------------------------------------------------------------------------

Reading the OPT-File                    .... done
Getting information on internals        .... done
Copying old internal coords+grads       .... done
Making the new internal coordinates     .... (2022 redundants) done
Validating the new internal coordinates .... (2022 redundants) done
Calculating the B-matrix                .... done
Calculating the G,G- and P matrices     .... done
Transforming gradient to internals      .... done
Projecting the internal gradient        .... done
Number of atoms                         ....  15
Number of internal coordinates          ....  58
Current Energy                          ....   -15.773198833 Eh
Current gradient norm                   ....     0.030605364 Eh/bohr
Maximum allowed component of the step   ....  0.300
Current trust radius                    ....  0.300
Updating the Hessian (BFGS)             .... done
Forming the augmented Hessian           .... done
Diagonalizing the augmented Hessian     .... done
Last element of RFO vector              ....  0.974630129
Lowest eigenvalues of augmented Hessian:
 -0.002685213  0.011409545  0.012479412  0.013775197  0.027265852
Length of the computed step             ....  0.229647742
The final length of the internal step   ....  0.229647742
Converting the step to Cartesian space:
 Initial RMS(Int)=    0.0301542258
Transforming coordinates:
 Iter   0:  RMS(Cart)=    0.0462093218 RMS(Int)=    0.0302943959
 Iter   5:  RMS(Cart)=    0.0000000212 RMS(Int)=    0.0000000162
done
Storing new coordinates                 .... done
The predicted energy change is          ....    -0.001413413
Previously predicted energy change      ....    -0.007114777
Actually observed energy change         ....    -0.008411544
Ratio of predicted to observed change   ....     1.182263838
New trust radius                        ....     0.450000000

                                .--------------------.
          ----------------------|Geometry convergence|-------------------------
          Item                value                   Tolerance       Converged
          ---------------------------------------------------------------------
          Energy change      -0.0084115438            0.0000050000      NO
          RMS gradient        0.0026784034            0.0001000000      NO
          MAX gradient        0.0071624358            0.0003000000      NO
          RMS step            0.0301542258            0.0020000000      NO
          MAX step            0.0996280507            0.0040000000      NO
          -------------------------------------------------------------------------
          ........................................................
          Max(Bonds)      0.0067      Max(Angles)    2.16
          Max(Dihed)        5.71      Max(Improp)    0.00
          ---------------------------------------------------------------------

    ---------------------------------------------------------------------------
                         Redundant Internal Coordinates
                            (Angstroem and degrees)

        Definition                    Value    dE/dq     Step     New-Value
    ----------------------------------------------------------------------------
     1. B(C   1,C   0)                1.5044  0.002370 -0.0041    1.5003   
     2. B(C   2,C   1)                1.3264  0.003492 -0.0035    1.3229   
     3. B(C   3,C   2)                1.4987  0.000712 -0.0005    1.4982   
     4. B(C   4,C   3)                1.5483  0.004286 -0.0065    1.5417   
     5. B(H   5,C   0)                1.0894  0.000904 -0.0041    1.0852   
     6. B(H   6,C   0)                1.0902  0.001269 -0.0043    1.0859   
     7. B(H   7,C   0)                1.0883  0.000754 -0.0041    1.0842   
     8. B(H   8,C   1)                1.0804 -0.000386  0.0004    1.0807   
     9. B(H   9,C   2)                1.0793 -0.001285  0.0027    1.0820   
    10. B(H  10,C   3)                1.0981  0.002299 -0.0067    1.0914   
    11. B(H  11,C   3)                1.0863 -0.000953  0.0015    1.0877   
    12. B(H  12,C   4)                1.0849  0.000618 -0.0032    1.0817   
    13. B(H  13,C   4)                1.0880  0.000659 -0.0033    1.0847   
    14. B(H  14,C   4)                1.0880  0.001160 -0.0049    1.0831   
    15. A(H   6,C   0,H   7)          110.06  0.002901   -0.90    109.16   
    16. A(C   1,C   0,H   5)          110.09 -0.000830    0.27    110.36   
    17. A(C   1,C   0,H   6)          108.30 -0.005562    1.80    110.11   
    18. A(C   1,C   0,H   7)          110.35 -0.000441   -0.13    110.22   
    19. A(H   5,C   0,H   6)          107.59 -0.000163    0.89    108.48   
    20. A(H   5,C   0,H   7)          110.39  0.003934   -1.74    108.65   
    21. A(C   2,C   1,H   8)          121.19  0.003595   -0.76    120.44   
    22. A(C   0,C   1,H   8)          116.34  0.002084   -0.45    115.89   
    23. A(C   0,C   1,C   2)          122.46 -0.005674    1.20    123.66   
    24. A(C   3,C   2,H   9)          116.99  0.004029   -0.94    116.05   
    25. A(C   1,C   2,H   9)          119.08 -0.001282    0.33    119.40   
    26. A(C   1,C   2,C   3)          123.93 -0.002747    0.61    124.54   
    27. A(C   4,C   3,H  10)          108.31  0.000839    0.37    108.67   
    28. A(C   2,C   3,H  10)          107.57 -0.001061    1.08    108.65   
    29. A(C   2,C   3,C   4)          108.45 -0.006029    1.78    110.22   
    30. A(H  10,C   3,H  11)          109.31  0.000376   -0.82    108.49   
    31. A(C   4,C   3,H  11)          111.68  0.002701   -1.10    110.58   
    32. A(C   2,C   3,H  11)          111.39  0.002971   -1.07    110.32   
    33. A(H  13,C   4,H  14)          108.99  0.002694   -0.61    108.38   
    34. A(H  12,C   4,H  14)          111.05  0.005244   -1.31    109.74   
    35. A(C   3,C   4,H  14)          107.27 -0.007162    2.16    109.43   
    36. A(H  12,C   4,H  13)          110.50  0.003440   -1.27    109.23   
    37. A(C   3,C   4,H  13)          107.76 -0.005645    1.52    109.28   
    38. A(C   3,C   4,H  12)          111.16  0.000873   -0.13    111.02   
    39. D(C   2,C   1,C   0,H   5)   -137.85  0.002034    0.94   -136.91   
    40. D(C   2,C   1,C   0,H   6)    -20.47 -0.001872    3.10    -17.37   
    41. D(H   8,C   1,C   0,H   6)    160.76 -0.002207    3.02    163.79   
    42. D(C   2,C   1,C   0,H   7)    100.06 -0.002063    3.04    103.10   
    43. D(H   8,C   1,C   0,H   5)     43.38  0.001698    0.86     44.24   
    44. D(C   3,C   2,C   1,C   0)   -178.20 -0.000239    0.07   -178.13   
    45. D(C   3,C   2,C   1,H   8)      0.52  0.000087    0.16      0.67   
    46. D(H   9,C   2,C   1,H   8)    179.67  0.000129    0.11    179.78   
    47. D(H   9,C   2,C   1,C   0)      0.96 -0.000197    0.02      0.98   
    48. D(H  11,C   3,C   2,C   1)     -4.62  0.000087    0.14     -4.48   
    49. D(H  10,C   3,C   2,H   9)     56.43 -0.001453    1.13     57.56   
    50. D(H  10,C   3,C   2,C   1)   -124.40 -0.001452    1.08   -123.31   
    51. D(C   4,C   3,C   2,H   9)    -60.50  0.001289   -0.63    -61.13   
    52. D(C   4,C   3,C   2,C   1)    118.67  0.001291   -0.68    118.00   
    53. D(H  12,C   4,C   3,C   2)   -164.64 -0.001481   -2.76   -167.40   
    54. D(H  13,C   4,C   3,H  11)     79.69  0.000991   -4.22     75.48   
    55. D(H  13,C   4,C   3,H  10)   -159.88  0.003675   -5.71   -165.59   
    56. D(H  13,C   4,C   3,C   2)    -43.43 -0.000358   -3.42    -46.85   
    57. D(H  12,C   4,C   3,H  11)    -41.52 -0.000131   -3.55    -45.07   
    58. D(H  12,C   4,C   3,H  10)     78.90  0.002552   -5.04     73.86   
    ----------------------------------------------------------------------------

Geometry step timings:
Preparation and reading OPT file:      0.000 s ( 1.057 %)
Internal coordinates            :      0.000 s ( 1.447 %)
B/P matrices and projection     :      0.000 s (22.482 %)
Hessian update/contruction      :      0.000 s (26.043 %)
Making the step                 :      0.000 s (18.698 %)
Converting the step to Cartesian:      0.000 s ( 3.116 %)
Storing new data                :      0.000 s ( 1.669 %)
Checking convergence            :      0.000 s ( 2.504 %)
Final printing                  :      0.000 s (22.927 %)
Total time                      :      0.002 s

Time for energy+gradient        :      0.046 s
Time for complete geometry iter :      0.048 s

         *************************************************************
         *                GEOMETRY OPTIMIZATION CYCLE   3            *
         *************************************************************
---------------------------------
CARTESIAN COORDINATES (ANGSTROEM)
---------------------------------
  C     2.455671    0.639900   -0.159472
  C     1.250176   -0.202600    0.136885
  C     0.074014   -0.029617   -0.443406
  C    -1.152366   -0.832532   -0.133627
  C    -2.260637    0.082691    0.424069
  H     3.338932    0.015771   -0.248873
  H     2.316545    1.173351   -1.095046
  H     2.616996    1.356518    0.637957
  H     1.384052   -0.971483    0.884488
  H    -0.042229    0.747632   -1.187101
  H    -1.511271   -1.289516   -1.057452
  H    -0.917446   -1.624214    0.574353
  H    -3.063511   -0.499796    0.855580
  H    -1.839931    0.730434    1.185664
  H    -2.648995    0.703459   -0.374020

----------------------------
CARTESIAN COORDINATES (A.U.)
----------------------------
  NO LB    ZA    FRAG    MASS        X           Y           Z
   0 C   6.0000    1    12.011    4.640545    1.209236   -0.301358
   1 C   6.0000    1    12.011    2.362490   -0.382858    0.258676
   2 C   6.0000    1    12.011    0.139866   -0.055969   -0.837916
   3 C   6.0000    1    12.011   -2.177655   -1.573257   -0.252518
   4 C   6.0000    1    12.011   -4.271985    0.156263    0.801374
   5 H   1.0000    1     1.008    6.309668    0.029803   -0.470301
   6 H   1.0000    1     1.008    4.377635    2.217313   -2.069337
   7 H   1.0000    1     1.008    4.945405    2.563448    1.205564
   8 H   1.0000    1     1.008    2.615480   -1.835836    1.671440
   9 H   1.0000    1     1.008   -0.079802    1.412820   -2.243296
  10 H   1.0000    1     1.008   -2.855888   -2.436833   -1.998295
  11 H   1.0000    1     1.008   -1.733722   -3.069319    1.085369
  12 H   1.0000    1     1.008   -5.789196   -0.944478    1.616812
  13 H   1.0000    1     1.008   -3.476965    1.380321    2.240581
  14 H   1.0000    1     1.008   -5.005876    1.329345   -0.706795

      -----------------------------------------------------------      
     |                   =====================                   |     
     |                           x T B                           |     
     |                   =====================                   |     
     |                         S. Grimme                         |     
     |          Mulliken Center for Theoretical Chemistry        |     
     |                    University of Bonn                     |     
      -----------------------------------------------------------      

   * xtb version 6.7.1 (edcfbbe) compiled by 'albert@albert-system' on 2024-07-22

   xtb is free software: you can redistribute it and/or modify it under
   the terms of the GNU Lesser General Public License as published by
   the Free Software Foundation, either version 3 of the License, or
   (at your option) any later version.
   
   xtb is distributed in the hope that it will be useful,
   but WITHOUT ANY WARRANTY; without even the implied warranty of
   MERCHANTABILITY or FITNESS FOR A PARTICULAR PURPOSE.  See the
   GNU Lesser General Public License for more details.
   
   Cite this work as:
   * C. Bannwarth, E. Caldeweyher, S. Ehlert, A. Hansen, P. Pracht,
     J. Seibert, S. Spicher, S. Grimme, WIREs Comput. Mol. Sci., 2020, 11,
     e01493. DOI: 10.1002/wcms.1493
   
   for GFN2-xTB:
   * C. Bannwarth, S. Ehlert and S. Grimme., J. Chem. Theory Comput., 2019,
     15, 1652-1671. DOI: 10.1021/acs.jctc.8b01176
   for GFN1-xTB:
   * S. Grimme, C. Bannwarth, P. Shushkov, J. Chem. Theory Comput., 2017,
     13, 1989-2009. DOI: 10.1021/acs.jctc.7b00118
   for GFN0-xTB:
   * P. Pracht, E. Caldeweyher, S. Ehlert, S. Grimme, ChemRxiv, 2019, preprint.
     DOI: 10.26434/chemrxiv.8326202.v1
   for GFN-FF:
   * S. Spicher and S. Grimme, Angew. Chem. Int. Ed., 2020, 59, 15665-15673.
     DOI: 10.1002/anie.202004239
   
   for ALPB and GBSA implicit solvation:
   * S. Ehlert, M. Stahn, S. Spicher, S. Grimme, J. Chem. Theory Comput.,
     2021, 17, 4250-4261. DOI: 10.1021/acs.jctc.1c00471
   
   for ddCOSMO and CPCM-X implicit solvation:
   * M. Stahn, S. Ehlert, S. Grimme, J. Phys. Chem. A,
     2023, XX, XXXX-XXXX. DOI: 10.1021/acs.jpca.3c04382
   
   for DFT-D4:
   * E. Caldeweyher, C. Bannwarth and S. Grimme, J. Chem. Phys., 2017,
     147, 034112. DOI: 10.1063/1.4993215
   * E. Caldeweyher, S. Ehlert, A. Hansen, H. Neugebauer, S. Spicher,
     C. Bannwarth and S. Grimme, J. Chem. Phys., 2019, 150, 154122.
     DOI: 10.1063/1.5090222
   * E. Caldeweyher, J.-M. Mewes, S. Ehlert and S. Grimme, Phys. Chem. Chem. Phys.
     2020, 22, 8499-8512. DOI: 10.1039/D0CP00502A
   
   for sTDA-xTB:
   * S. Grimme and C. Bannwarth, J. Chem. Phys., 2016, 145, 054103.
     DOI: 10.1063/1.4959605
   
   in the mass-spec context:
   * V. Asgeirsson, C. Bauer and S. Grimme, Chem. Sci., 2017, 8, 4879.
     DOI: 10.1039/c7sc00601b
   * J. Koopman and S. Grimme, ACS Omega 2019, 4, 12, 15120-15133.
     DOI: 10.1021/acsomega.9b02011
   
   for metadynamics refer to:
   * S. Grimme, J. Chem. Theory Comput., 2019, 155, 2847-2862
     DOI: 10.1021/acs.jctc.9b00143
   
   for SPH calculations refer to:
   * S. Spicher and S. Grimme, J. Chem. Theory Comput., 2021, 17, 1701-1714
     DOI: 10.1021/acs.jctc.0c01306
   
   for ONIOM refer to:
   * C. Plett, A. Katbashev, S. Ehlert, S. Grimme, M. Bursch,
     Phys. Chem. Chem. Phys., 2023, 25, 17860-17868. DOI: 10.1039/D3CP02178E
   
   for DIPRO refer to:
   * J. Kohn, N. Gildemeister, S. Grimme, D. Fazzi, A. Hansen,
     J. Chem. Phys., 2023, just accepted.
   
   for PTB refer to:
   * S. Grimme, M. Mueller, A. Hansen, J. Chem. Phys., 2023, 158, 124111.
     DOI: 10.1063/5.0137838
   
   with help from (in alphabetical order)
   P. Atkinson, C. Bannwarth, F. Bohle, G. Brandenburg, E. Caldeweyher
   M. Checinski, S. Dohm, S. Ehlert, S. Ehrlich, I. Gerasimov, C. Hölzer
   A. Katbashev, J. Kohn, J. Koopman, C. Lavigne, S. Lehtola, F. März, M. Müller,
   F. Musil, H. Neugebauer, J. Pisarek, C. Plett, P. Pracht, F. Pultar,
   J. Seibert, P. Shushkov, S. Spicher, M. Stahn, M. Steiner, T. Strunk,
   J. Stückrath, T. Rose, and J. Unsleber
   
 * started run on 2026/09/11 at 13:10:19.408     
   ID    Z sym.   atoms
    1    6 C      1-5
    2    1 H      6-15

           -------------------------------------------------
          |                Calculation Setup                |
           -------------------------------------------------

          program call               : /apps/eb/ORCA/6.1.1-gompi-2023b-avx2/bin/otool_xtb goat_XTB.xyz --grad -c 0 -u 0 -P 8 --namespace goat --input goat_XTB.input.tmp --acc 0.200000
          hostname                   : a2-7
          calculation namespace      : goat
          coordinate file            : goat_XTB.xyz
          omp threads                :                     8


           -------------------------------------------------
          |                 G F N 2 - x T B                 |
           -------------------------------------------------

        Reference                      10.1021/acs.jctc.8b01176
      * Hamiltonian:
        H0-scaling (s, p, d)           1.850000    2.230000    2.230000
        zeta-weighting                 0.500000
      * Dispersion:
        s8                             2.700000
        a1                             0.520000
        a2                             5.000000
        s9                             5.000000
      * Repulsion:
        kExp                           1.500000    1.000000
        rExp                           1.000000
      * Coulomb:
        alpha                          2.000000
        third order                    shell-resolved
        anisotropic                    true
        a3                             3.000000
        a5                             4.000000
        cn-shift                       1.200000
        cn-exp                         4.000000
        max-rad                        5.000000

q/qsh data taken from xtbrestart
CAMM data taken from xtbrestart

          ...................................................
          :                      SETUP                      :
          :.................................................:
          :  # basis functions                  30          :
          :  # atomic orbitals                  30          :
          :  # shells                           20          :
          :  # electrons                        30          :
          :  max. iterations                   250          :
          :  Hamiltonian                  GFN2-xTB          :
          :  restarted?                       true          :
          :  GBSA solvation                  false          :
          :  PC potential                    false          :
          :  electronic temp.          300.0000000     K    :
          :  accuracy                    0.2000000          :
          :  -> integral cutoff          0.3198970E+02      :
          :  -> integral neglect         0.2000000E-08      :
          :  -> SCF convergence          0.2000000E-06 Eh   :
          :  -> wf. convergence          0.2000000E-04 e    :
          :  Broyden damping             0.4000000          :
          :  net charge                          0          :
          :  unpaired electrons                  0          :
          ...................................................

 iter      E             dE          RMSdq      gap      omega  full diag
   1    -16.0477193 -0.160477E+02  0.192E-01    5.25       0.0  T
   2    -16.0477230 -0.371187E-05  0.115E-01    5.25       1.0  T
   3    -16.0476818  0.411554E-04  0.612E-02    5.25       1.0  T
   4    -16.0477295 -0.476537E-04  0.516E-03    5.25       5.0  T
   5    -16.0477295 -0.667955E-07  0.233E-03    5.25      11.1  T
   6    -16.0477296 -0.331140E-08  0.412E-04    5.25      62.7  T
   7    -16.0477296 -0.351523E-09  0.160E-04    5.25     161.7  T
   8    -16.0477296 -0.286278E-10  0.287E-05    5.25     900.8  T

   *** convergence criteria satisfied after 8 iterations ***

         #    Occupation            Energy/Eh            Energy/eV
      -------------------------------------------------------------
         1        2.0000           -0.6186841             -16.8353
       ...           ...                  ...                  ...
         9        2.0000           -0.4759963             -12.9525
        10        2.0000           -0.4665313             -12.6950
        11        2.0000           -0.4554413             -12.3932
        12        2.0000           -0.4387697             -11.9395
        13        2.0000           -0.4269175             -11.6170
        14        2.0000           -0.4221579             -11.4875
        15        2.0000           -0.3823881             -10.4053 (HOMO)
        16                         -0.1895143              -5.1569 (LUMO)
        17                          0.0926277               2.5205
        18                          0.1242138               3.3800
        19                          0.1281798               3.4880
        20                          0.1668436               4.5400
       ...                                ...                  ...
        30                          0.6440360              17.5251
      -------------------------------------------------------------
                  HL-Gap            0.1928737 Eh            5.2484 eV
             Fermi-level           -0.2859512 Eh           -7.7811 eV

 SCC (total)                   0 d,  0 h,  0 min,  0.013 sec
 SCC setup                      ...        0 min,  0.001 sec (  5.392%)
 Dispersion                     ...        0 min,  0.000 sec (  2.058%)
 classical contributions        ...        0 min,  0.000 sec (  1.252%)
 integral evaluation            ...        0 min,  0.001 sec (  5.587%)
 iterations                     ...        0 min,  0.010 sec ( 75.193%)
 molecular gradient             ...        0 min,  0.001 sec (  9.021%)
 printout                       ...        0 min,  0.000 sec (  1.250%)

         :::::::::::::::::::::::::::::::::::::::::::::::::::::
         ::                     SUMMARY                     ::
         :::::::::::::::::::::::::::::::::::::::::::::::::::::
         :: total energy             -15.775056558978 Eh    ::
         :: gradient norm              0.017844034758 Eh/a0 ::
         :: HOMO-LUMO gap              5.248361727063 eV    ::
         ::.................................................::
         :: SCC energy               -16.047724478151 Eh    ::
         :: -> isotropic ES            0.003227800424 Eh    ::
         :: -> anisotropic ES          0.004862346825 Eh    ::
         :: -> anisotropic XC          0.011482819072 Eh    ::
         :: -> dispersion             -0.007255302795 Eh    ::
         :: repulsion energy           0.272667919173 Eh    ::
         :: add. restraining           0.000000000000 Eh    ::
         :: total charge               0.000000000000 e     ::
         :::::::::::::::::::::::::::::::::::::::::::::::::::::


Property printout bound to 'properties.out'

           -------------------------------------------------
          | TOTAL ENERGY              -15.775056558978 Eh   |
          | GRADIENT NORM               0.017844034758 Eh/α |
          | HOMO-LUMO GAP               5.248361727063 eV   |
           -------------------------------------------------

------------------------------------------------------------------------
 * finished run on 2026/09/11 at 13:10:19.450     
------------------------------------------------------------------------
 total:
 * wall-time:     0 d,  0 h,  0 min,  0.041 sec
 *  cpu-time:     0 d,  0 h,  0 min,  0.162 sec
 * ratio c/w:     3.911 speedup
 SCF:
 * wall-time:     0 d,  0 h,  0 min,  0.013 sec
 *  cpu-time:     0 d,  0 h,  0 min,  0.061 sec
 * ratio c/w:     4.681 speedup


-------------------------   --------------------
FINAL SINGLE POINT ENERGY       -15.775056558980
-------------------------   --------------------


-------------
DIPOLE MOMENT
-------------
                                X             Y             Z
Total Dipole Moment    :      0.00400       0.04000       0.00600
                        -----------------------------------------
Magnitude (a.u.)       :      0.04064
Magnitude (Debye)      :      0.10331


------------------
CARTESIAN GRADIENT
------------------

   1   C   :    0.004587565    0.005378192    0.003009253
   2   C   :   -0.001305586   -0.004095802    0.001608338
   3   C   :   -0.001340514    0.003278551   -0.002099921
   4   C   :    0.003170069   -0.006601425    0.001692615
   5   C   :   -0.009075258    0.003517146    0.003020628
   6   H   :   -0.002179609    0.000844641   -0.000870490
   7   H   :   -0.000031706   -0.002242950    0.000044465
   8   H   :   -0.001260415   -0.001885861   -0.002395355
   9   H   :    0.000186750    0.000377858   -0.000871717
  10   H   :    0.001340595    0.000047540    0.000265678
  11   H   :    0.001044098    0.002291536    0.000306458
  12   H   :   -0.000648002    0.000202879   -0.001780387
  13   H   :    0.002526021    0.001314314   -0.000155173
  14   H   :    0.000638083   -0.000614173   -0.002719170
  15   H   :    0.002347910   -0.001812446    0.000944778

Difference to translation invariance:
           :    0.0000000000    0.0000000000    0.0000000000

Difference to rotation invariance:
           :    0.0000000092   -0.0000000096   -0.0000000098

Norm of the Cartesian gradient     ...    0.0178440348
RMS gradient                       ...    0.0026600316
MAX gradient                       ...    0.0090752579
------------------------------------------------------------------------------
                         ORCA GEOMETRY RELAXATION STEP
------------------------------------------------------------------------------

Reading the OPT-File                    .... done
Getting information on internals        .... done
Copying old internal coords+grads       .... done
Making the new internal coordinates     .... (2022 redundants) done
Validating the new internal coordinates .... (2022 redundants) done
Calculating the B-matrix                .... done
Calculating the G,G- and P matrices     .... done
Transforming gradient to internals      .... done
Projecting the internal gradient        .... done
Number of atoms                         ....  15
Number of internal coordinates          ....  58
Current Energy                          ....   -15.775056559 Eh
Current gradient norm                   ....     0.017844035 Eh/bohr
Maximum allowed component of the step   ....  0.300
Current trust radius                    ....  0.450
Updating the Hessian (BFGS)             .... done
Forming the augmented Hessian           .... done
Diagonalizing the augmented Hessian     .... done
Last element of RFO vector              ....  0.961645583
Lowest eigenvalues of augmented Hessian:
 -0.001253150  0.009246875  0.012177723  0.013770656  0.027251665
Length of the computed step             ....  0.285235070
The final length of the internal step   ....  0.285235070
Converting the step to Cartesian space:
 Initial RMS(Int)=    0.0374531995
Transforming coordinates:
 Iter   0:  RMS(Cart)=    0.0497658183 RMS(Int)=    0.0375279733
 Iter   5:  RMS(Cart)=    0.0000000408 RMS(Int)=    0.0000000346
done
Storing new coordinates                 .... done
The predicted energy change is          ....    -0.000677553
Previously predicted energy change      ....    -0.001413413
Actually observed energy change         ....    -0.001857726
Ratio of predicted to observed change   ....     1.314354742
New trust radius                        ....     0.450000000

                                .--------------------.
          ----------------------|Geometry convergence|-------------------------
          Item                value                   Tolerance       Converged
          ---------------------------------------------------------------------
          Energy change      -0.0018577263            0.0000050000      NO
          RMS gradient        0.0013958752            0.0001000000      NO
          MAX gradient        0.0043837125            0.0003000000      NO
          RMS step            0.0374531995            0.0020000000      NO
          MAX step            0.1179773522            0.0040000000      NO
          -------------------------------------------------------------------------
          ........................................................
          Max(Bonds)      0.0099      Max(Angles)    1.47
          Max(Dihed)        6.76      Max(Improp)    0.00
          ---------------------------------------------------------------------

    ---------------------------------------------------------------------------
                         Redundant Internal Coordinates
                            (Angstroem and degrees)

        Definition                    Value    dE/dq     Step     New-Value
    ----------------------------------------------------------------------------
     1. B(C   1,C   0)                1.5003  0.002114 -0.0054    1.4949   
     2. B(C   2,C   1)                1.3229  0.000440 -0.0017    1.3212   
     3. B(C   3,C   2)                1.4982  0.001181 -0.0017    1.4965   
     4. B(C   4,C   3)                1.5417  0.004384 -0.0099    1.5318   
     5. B(H   5,C   0)                1.0852 -0.002188  0.0024    1.0876   
     6. B(H   6,C   0)                1.0859 -0.001136  0.0002    1.0861   
     7. B(H   7,C   0)                1.0842 -0.003196  0.0048    1.0890   
     8. B(H   8,C   1)                1.0807 -0.000849  0.0017    1.0824   
     9. B(H   9,C   2)                1.0820 -0.000292  0.0016    1.0836   
    10. B(H  10,C   3)                1.0914 -0.001562  0.0007    1.0921   
    11. B(H  11,C   3)                1.0877 -0.001446  0.0033    1.0911   
    12. B(H  12,C   4)                1.0817 -0.002645  0.0039    1.0856   
    13. B(H  13,C   4)                1.0847 -0.002028  0.0024    1.0871   
    14. B(H  14,C   4)                1.0831 -0.002577  0.0031    1.0862   
    15. A(H   6,C   0,H   7)          109.15  0.000945   -0.66    108.49   
    16. A(C   1,C   0,H   5)          110.32 -0.000264    0.18    110.50   
    17. A(C   1,C   0,H   6)          110.07 -0.001642    1.19    111.26   
    18. A(C   1,C   0,H   7)          110.21  0.000053   -0.16    110.05   
    19. A(H   5,C   0,H   6)          108.41 -0.000304    0.69    109.10   
    20. A(H   5,C   0,H   7)          108.64  0.001256   -1.23    107.41   
    21. A(C   2,C   1,H   8)          120.44  0.001447   -0.58    119.86   
    22. A(C   0,C   1,H   8)          115.89  0.001072   -0.40    115.49   
    23. A(C   0,C   1,C   2)          123.66 -0.002519    0.98    124.64   
    24. A(C   3,C   2,H   9)          116.05  0.001758   -0.76    115.29   
    25. A(C   1,C   2,H   9)          119.40 -0.000961    0.35    119.75   
    26. A(C   1,C   2,C   3)          124.54 -0.000796    0.41    124.95   
    27. A(C   4,C   3,H  10)          108.56  0.000147    0.27    108.83   
    28. A(C   2,C   3,H  10)          108.58 -0.000576    0.81    109.38   
    29. A(C   2,C   3,C   4)          110.19 -0.001530    1.11    111.30   
    30. A(H  10,C   3,H  11)          108.49 -0.000011   -0.49    108.00   
    31. A(C   4,C   3,H  11)          110.60  0.001242   -0.92    109.68   
    32. A(C   2,C   3,H  11)          110.36  0.000710   -0.71    109.64   
    33. A(H  13,C   4,H  14)          108.31  0.000444   -0.35    107.97   
    34. A(H  12,C   4,H  14)          109.66  0.001753   -0.96    108.70   
    35. A(C   3,C   4,H  14)          109.36 -0.002260    1.47    110.82   
    36. A(H  12,C   4,H  13)          109.23  0.000844   -0.86    108.37   
    37. A(C   3,C   4,H  13)          109.25 -0.001814    1.03    110.28   
    38. A(C   3,C   4,H  12)          110.99  0.001013   -0.29    110.70   
    39. D(C   2,C   1,C   0,H   5)   -136.93  0.000474    2.39   -134.54   
    40. D(C   2,C   1,C   0,H   6)    -17.34 -0.001108    4.07    -13.27   
    41. D(H   8,C   1,C   0,H   6)    163.81 -0.001121    3.87    167.68   
    42. D(C   2,C   1,C   0,H   7)    103.10 -0.000953    3.92    107.02   
    43. D(H   8,C   1,C   0,H   5)     44.22  0.000462    2.19     46.40   
    44. D(C   3,C   2,C   1,C   0)   -178.12 -0.000004   -0.09   -178.22   
    45. D(C   3,C   2,C   1,H   8)      0.68  0.000002    0.13      0.80   
    46. D(H   9,C   2,C   1,H   8)    179.77  0.000097    0.05    179.82   
    47. D(H   9,C   2,C   1,C   0)      0.98  0.000091   -0.17      0.80   
    48. D(H  11,C   3,C   2,C   1)     -4.48 -0.000416    0.51     -3.96   
    49. D(H  10,C   3,C   2,H   9)     57.60 -0.000540    1.10     58.71   
    50. D(H  10,C   3,C   2,C   1)   -123.27 -0.000469    1.03   -122.24   
    51. D(C   4,C   3,C   2,H   9)    -61.17  0.000526   -0.30    -61.47   
    52. D(C   4,C   3,C   2,C   1)    117.95  0.000596   -0.37    117.58   
    53. D(H  12,C   4,C   3,C   2)   -167.35 -0.000304   -4.46   -171.80   
    54. D(H  13,C   4,C   3,H  11)     75.44  0.000899   -5.77     69.67   
    55. D(H  13,C   4,C   3,H  10)   -165.63  0.001711   -6.76   -172.39   
    56. D(H  13,C   4,C   3,C   2)    -46.84  0.000204   -5.02    -51.87   
    57. D(H  12,C   4,C   3,H  11)    -45.06  0.000391   -5.21    -50.27   
    58. D(H  12,C   4,C   3,H  10)     73.87  0.001203   -6.19     67.67   
    ----------------------------------------------------------------------------

Geometry step timings:
Preparation and reading OPT file:      0.000 s ( 1.097 %)
Internal coordinates            :      0.000 s ( 1.501 %)
B/P matrices and projection     :      0.000 s (28.811 %)
Hessian update/contruction      :      0.000 s (18.245 %)
Making the step                 :      0.000 s (19.111 %)
Converting the step to Cartesian:      0.000 s ( 3.118 %)
Storing new data                :      0.000 s ( 1.674 %)
Checking convergence            :      0.000 s ( 2.598 %)
Final printing                  :      0.000 s (23.845 %)
Total time                      :      0.002 s

Time for energy+gradient        :      0.052 s
Time for complete geometry iter :      0.054 s

         *************************************************************
         *                GEOMETRY OPTIMIZATION CYCLE   4            *
         *************************************************************
---------------------------------
CARTESIAN COORDINATES (ANGSTROEM)
---------------------------------
  C     2.464680    0.635867   -0.173705
  C     1.252699   -0.184839    0.130151
  C     0.076151   -0.030603   -0.450843
  C    -1.151122   -0.822621   -0.125266
  C    -2.266166    0.077391    0.416126
  H     3.338568   -0.002210   -0.283599
  H     2.330606    1.213898   -1.083383
  H     2.664758    1.323893    0.646334
  H     1.380967   -0.939291    0.895624
  H    -0.051026    0.727185   -1.214935
  H    -1.509387   -1.322276   -1.027878
  H    -0.908050   -1.590063    0.611184
  H    -3.096005   -0.518653    0.783049
  H    -1.893599    0.687336    1.235289
  H    -2.633075    0.744987   -0.358148

----------------------------
CARTESIAN COORDINATES (A.U.)
----------------------------
  NO LB    ZA    FRAG    MASS        X           Y           Z
   0 C   6.0000    1    12.011    4.657571    1.201615   -0.328255
   1 C   6.0000    1    12.011    2.367259   -0.349296    0.245951
   2 C   6.0000    1    12.011    0.143905   -0.057832   -0.851970
   3 C   6.0000    1    12.011   -2.175305   -1.554529   -0.236719
   4 C   6.0000    1    12.011   -4.282432    0.146249    0.786364
   5 H   1.0000    1     1.008    6.308979   -0.004177   -0.535925
   6 H   1.0000    1     1.008    4.404207    2.293934   -2.047297
   7 H   1.0000    1     1.008    5.035663    2.501795    1.221394
   8 H   1.0000    1     1.008    2.609649   -1.775002    1.692483
   9 H   1.0000    1     1.008   -0.096425    1.374181   -2.295894
  10 H   1.0000    1     1.008   -2.852329   -2.498739   -1.942408
  11 H   1.0000    1     1.008   -1.715965   -3.004784    1.154971
  12 H   1.0000    1     1.008   -5.850601   -0.980112    1.479749
  13 H   1.0000    1     1.008   -3.578384    1.298877    2.334358
  14 H   1.0000    1     1.008   -4.975791    1.407821   -0.676802

      -----------------------------------------------------------      
     |                   =====================                   |     
     |                           x T B                           |     
     |                   =====================                   |     
     |                         S. Grimme                         |     
     |          Mulliken Center for Theoretical Chemistry        |     
     |                    University of Bonn                     |     
      -----------------------------------------------------------      

   * xtb version 6.7.1 (edcfbbe) compiled by 'albert@albert-system' on 2024-07-22

   xtb is free software: you can redistribute it and/or modify it under
   the terms of the GNU Lesser General Public License as published by
   the Free Software Foundation, either version 3 of the License, or
   (at your option) any later version.
   
   xtb is distributed in the hope that it will be useful,
   but WITHOUT ANY WARRANTY; without even the implied warranty of
   MERCHANTABILITY or FITNESS FOR A PARTICULAR PURPOSE.  See the
   GNU Lesser General Public License for more details.
   
   Cite this work as:
   * C. Bannwarth, E. Caldeweyher, S. Ehlert, A. Hansen, P. Pracht,
     J. Seibert, S. Spicher, S. Grimme, WIREs Comput. Mol. Sci., 2020, 11,
     e01493. DOI: 10.1002/wcms.1493
   
   for GFN2-xTB:
   * C. Bannwarth, S. Ehlert and S. Grimme., J. Chem. Theory Comput., 2019,
     15, 1652-1671. DOI: 10.1021/acs.jctc.8b01176
   for GFN1-xTB:
   * S. Grimme, C. Bannwarth, P. Shushkov, J. Chem. Theory Comput., 2017,
     13, 1989-2009. DOI: 10.1021/acs.jctc.7b00118
   for GFN0-xTB:
   * P. Pracht, E. Caldeweyher, S. Ehlert, S. Grimme, ChemRxiv, 2019, preprint.
     DOI: 10.26434/chemrxiv.8326202.v1
   for GFN-FF:
   * S. Spicher and S. Grimme, Angew. Chem. Int. Ed., 2020, 59, 15665-15673.
     DOI: 10.1002/anie.202004239
   
   for ALPB and GBSA implicit solvation:
   * S. Ehlert, M. Stahn, S. Spicher, S. Grimme, J. Chem. Theory Comput.,
     2021, 17, 4250-4261. DOI: 10.1021/acs.jctc.1c00471
   
   for ddCOSMO and CPCM-X implicit solvation:
   * M. Stahn, S. Ehlert, S. Grimme, J. Phys. Chem. A,
     2023, XX, XXXX-XXXX. DOI: 10.1021/acs.jpca.3c04382
   
   for DFT-D4:
   * E. Caldeweyher, C. Bannwarth and S. Grimme, J. Chem. Phys., 2017,
     147, 034112. DOI: 10.1063/1.4993215
   * E. Caldeweyher, S. Ehlert, A. Hansen, H. Neugebauer, S. Spicher,
     C. Bannwarth and S. Grimme, J. Chem. Phys., 2019, 150, 154122.
     DOI: 10.1063/1.5090222
   * E. Caldeweyher, J.-M. Mewes, S. Ehlert and S. Grimme, Phys. Chem. Chem. Phys.
     2020, 22, 8499-8512. DOI: 10.1039/D0CP00502A
   
   for sTDA-xTB:
   * S. Grimme and C. Bannwarth, J. Chem. Phys., 2016, 145, 054103.
     DOI: 10.1063/1.4959605
   
   in the mass-spec context:
   * V. Asgeirsson, C. Bauer and S. Grimme, Chem. Sci., 2017, 8, 4879.
     DOI: 10.1039/c7sc00601b
   * J. Koopman and S. Grimme, ACS Omega 2019, 4, 12, 15120-15133.
     DOI: 10.1021/acsomega.9b02011
   
   for metadynamics refer to:
   * S. Grimme, J. Chem. Theory Comput., 2019, 155, 2847-2862
     DOI: 10.1021/acs.jctc.9b00143
   
   for SPH calculations refer to:
   * S. Spicher and S. Grimme, J. Chem. Theory Comput., 2021, 17, 1701-1714
     DOI: 10.1021/acs.jctc.0c01306
   
   for ONIOM refer to:
   * C. Plett, A. Katbashev, S. Ehlert, S. Grimme, M. Bursch,
     Phys. Chem. Chem. Phys., 2023, 25, 17860-17868. DOI: 10.1039/D3CP02178E
   
   for DIPRO refer to:
   * J. Kohn, N. Gildemeister, S. Grimme, D. Fazzi, A. Hansen,
     J. Chem. Phys., 2023, just accepted.
   
   for PTB refer to:
   * S. Grimme, M. Mueller, A. Hansen, J. Chem. Phys., 2023, 158, 124111.
     DOI: 10.1063/5.0137838
   
   with help from (in alphabetical order)
   P. Atkinson, C. Bannwarth, F. Bohle, G. Brandenburg, E. Caldeweyher
   M. Checinski, S. Dohm, S. Ehlert, S. Ehrlich, I. Gerasimov, C. Hölzer
   A. Katbashev, J. Kohn, J. Koopman, C. Lavigne, S. Lehtola, F. März, M. Müller,
   F. Musil, H. Neugebauer, J. Pisarek, C. Plett, P. Pracht, F. Pultar,
   J. Seibert, P. Shushkov, S. Spicher, M. Stahn, M. Steiner, T. Strunk,
   J. Stückrath, T. Rose, and J. Unsleber
   
 * started run on 2026/09/11 at 13:10:19.462     
   ID    Z sym.   atoms
    1    6 C      1-5
    2    1 H      6-15

           -------------------------------------------------
          |                Calculation Setup                |
           -------------------------------------------------

          program call               : /apps/eb/ORCA/6.1.1-gompi-2023b-avx2/bin/otool_xtb goat_XTB.xyz --grad -c 0 -u 0 -P 8 --namespace goat --input goat_XTB.input.tmp --acc 0.200000
          hostname                   : a2-7
          calculation namespace      : goat
          coordinate file            : goat_XTB.xyz
          omp threads                :                     8


           -------------------------------------------------
          |                 G F N 2 - x T B                 |
           -------------------------------------------------

        Reference                      10.1021/acs.jctc.8b01176
      * Hamiltonian:
        H0-scaling (s, p, d)           1.850000    2.230000    2.230000
        zeta-weighting                 0.500000
      * Dispersion:
        s8                             2.700000
        a1                             0.520000
        a2                             5.000000
        s9                             5.000000
      * Repulsion:
        kExp                           1.500000    1.000000
        rExp                           1.000000
      * Coulomb:
        alpha                          2.000000
        third order                    shell-resolved
        anisotropic                    true
        a3                             3.000000
        a5                             4.000000
        cn-shift                       1.200000
        cn-exp                         4.000000
        max-rad                        5.000000

q/qsh data taken from xtbrestart
CAMM data taken from xtbrestart

          ...................................................
          :                      SETUP                      :
          :.................................................:
          :  # basis functions                  30          :
          :  # atomic orbitals                  30          :
          :  # shells                           20          :
          :  # electrons                        30          :
          :  max. iterations                   250          :
          :  Hamiltonian                  GFN2-xTB          :
          :  restarted?                       true          :
          :  GBSA solvation                  false          :
          :  PC potential                    false          :
          :  electronic temp.          300.0000000     K    :
          :  accuracy                    0.2000000          :
          :  -> integral cutoff          0.3198970E+02      :
          :  -> integral neglect         0.2000000E-08      :
          :  -> SCF convergence          0.2000000E-06 Eh   :
          :  -> wf. convergence          0.2000000E-04 e    :
          :  Broyden damping             0.4000000          :
          :  net charge                          0          :
          :  unpaired electrons                  0          :
          ...................................................

 iter      E             dE          RMSdq      gap      omega  full diag
   1    -16.0475325 -0.160475E+02  0.159E-01    5.27       0.0  T
   2    -16.0475357 -0.317525E-05  0.946E-02    5.27       1.0  T
   3    -16.0475136  0.220239E-04  0.444E-02    5.27       1.0  T
   4    -16.0475386 -0.249464E-04  0.399E-03    5.27       6.5  T
   5    -16.0475387 -0.100940E-06  0.142E-03    5.27      18.1  T
   6    -16.0475387 -0.144249E-08  0.476E-04    5.27      54.2  T
   7    -16.0475387 -0.238398E-09  0.109E-04    5.27     236.2  T
   8    -16.0475387 -0.129248E-10  0.368E-05    5.27     700.8  T

   *** convergence criteria satisfied after 8 iterations ***

         #    Occupation            Energy/Eh            Energy/eV
      -------------------------------------------------------------
         1        2.0000           -0.6188963             -16.8410
       ...           ...                  ...                  ...
         9        2.0000           -0.4762318             -12.9589
        10        2.0000           -0.4666540             -12.6983
        11        2.0000           -0.4563645             -12.4183
        12        2.0000           -0.4383486             -11.9281
        13        2.0000           -0.4273031             -11.6275
        14        2.0000           -0.4214189             -11.4674
        15        2.0000           -0.3826101             -10.4114 (HOMO)
        16                         -0.1890696              -5.1448 (LUMO)
        17                          0.0936930               2.5495
        18                          0.1220394               3.3209
        19                          0.1377176               3.7475
        20                          0.1668639               4.5406
       ...                                ...                  ...
        30                          0.6514343              17.7264
      -------------------------------------------------------------
                  HL-Gap            0.1935406 Eh            5.2665 eV
             Fermi-level           -0.2858399 Eh           -7.7781 eV

 SCC (total)                   0 d,  0 h,  0 min,  0.020 sec
 SCC setup                      ...        0 min,  0.001 sec (  3.425%)
 Dispersion                     ...        0 min,  0.000 sec (  1.860%)
 classical contributions        ...        0 min,  0.000 sec (  1.034%)
 integral evaluation            ...        0 min,  0.001 sec (  4.760%)
 iterations                     ...        0 min,  0.014 sec ( 73.788%)
 molecular gradient             ...        0 min,  0.003 sec ( 13.656%)
 printout                       ...        0 min,  0.000 sec (  1.310%)

         :::::::::::::::::::::::::::::::::::::::::::::::::::::
         ::                     SUMMARY                     ::
         :::::::::::::::::::::::::::::::::::::::::::::::::::::
         :: total energy             -15.775865156029 Eh    ::
         :: gradient norm              0.004915447976 Eh/a0 ::
         :: HOMO-LUMO gap              5.266507345010 eV    ::
         ::.................................................::
         :: SCC energy               -16.047534024664 Eh    ::
         :: -> isotropic ES            0.003125308067 Eh    ::
         :: -> anisotropic ES          0.004909151127 Eh    ::
         :: -> anisotropic XC          0.011374496345 Eh    ::
         :: -> dispersion             -0.007244844787 Eh    ::
         :: repulsion energy           0.271668868635 Eh    ::
         :: add. restraining           0.000000000000 Eh    ::
         :: total charge               0.000000000000 e     ::
         :::::::::::::::::::::::::::::::::::::::::::::::::::::


Property printout bound to 'properties.out'

           -------------------------------------------------
          | TOTAL ENERGY              -15.775865156029 Eh   |
          | GRADIENT NORM               0.004915447976 Eh/α |
          | HOMO-LUMO GAP               5.266507345010 eV   |
           -------------------------------------------------

------------------------------------------------------------------------
 * finished run on 2026/09/11 at 13:10:19.502     
------------------------------------------------------------------------
 total:
 * wall-time:     0 d,  0 h,  0 min,  0.039 sec
 *  cpu-time:     0 d,  0 h,  0 min,  0.167 sec
 * ratio c/w:     4.296 speedup
 SCF:
 * wall-time:     0 d,  0 h,  0 min,  0.020 sec
 *  cpu-time:     0 d,  0 h,  0 min,  0.094 sec
 * ratio c/w:     4.757 speedup


-------------------------   --------------------
FINAL SINGLE POINT ENERGY       -15.775865156030
-------------------------   --------------------


-------------
DIPOLE MOMENT
-------------
                                X             Y             Z
Total Dipole Moment    :      0.01400       0.03400       0.01500
                        -----------------------------------------
Magnitude (a.u.)       :      0.03971
Magnitude (Debye)      :      0.10094


------------------
CARTESIAN GRADIENT
------------------

   1   C   :    0.000598819    0.001297979   -0.000310382
   2   C   :   -0.000829432   -0.000962325   -0.000123722
   3   C   :    0.001224026   -0.000347552    0.001439912
   4   C   :    0.000445282   -0.000987245   -0.000902510
   5   C   :   -0.002094641   -0.000279210   -0.000114367
   6   H   :   -0.000618549    0.000651237    0.000684038
   7   H   :    0.000491116   -0.000459356    0.000449412
   8   H   :   -0.000119544   -0.000629102   -0.001034291
   9   H   :   -0.000022245   -0.000002447   -0.000539923
  10   H   :    0.000154835    0.000124172   -0.000221006
  11   H   :    0.000327857    0.000768010    0.000792386
  12   H   :   -0.000193281    0.000004533   -0.000662795
  13   H   :    0.001011391    0.000874413    0.000440535
  14   H   :   -0.000487319    0.000291226   -0.000998238
  15   H   :    0.000111685   -0.000344333    0.001100953

Difference to translation invariance:
           :   -0.0000000000   -0.0000000000    0.0000000000

Difference to rotation invariance:
           :    0.0000000184   -0.0000000084   -0.0000000014

Norm of the Cartesian gradient     ...    0.0049154480
RMS gradient                       ...    0.0007327517
MAX gradient                       ...    0.0020946409
------------------------------------------------------------------------------
                         ORCA GEOMETRY RELAXATION STEP
------------------------------------------------------------------------------

Reading the OPT-File                    .... done
Getting information on internals        .... done
Copying old internal coords+grads       .... done
Making the new internal coordinates     .... (2022 redundants) done
Validating the new internal coordinates .... (2022 redundants) done
Calculating the B-matrix                .... done
Calculating the G,G- and P matrices     .... done
Transforming gradient to internals      .... done
Projecting the internal gradient        .... done
Number of atoms                         ....  15
Number of internal coordinates          ....  58
Current Energy                          ....   -15.775865156 Eh
Current gradient norm                   ....     0.004915448 Eh/bohr
Maximum allowed component of the step   ....  0.300
Current trust radius                    ....  0.450
Updating the Hessian (BFGS)             .... done
Forming the augmented Hessian           .... done
Diagonalizing the augmented Hessian     .... done
Last element of RFO vector              ....  0.976483258
Lowest eigenvalues of augmented Hessian:
 -0.000338370  0.006083818  0.012097415  0.013767128  0.027242053
Length of the computed step             ....  0.220785396
The final length of the internal step   ....  0.220785396
Converting the step to Cartesian space:
 Initial RMS(Int)=    0.0289905428
Transforming coordinates:
 Iter   0:  RMS(Cart)=    0.0396525921 RMS(Int)=    0.0289962125
 Iter   5:  RMS(Cart)=    0.0000000093 RMS(Int)=    0.0000000078
done
Storing new coordinates                 .... done
The predicted energy change is          ....    -0.000177432
Previously predicted energy change      ....    -0.000677553
Actually observed energy change         ....    -0.000808597
Ratio of predicted to observed change   ....     1.193408588
New trust radius                        ....     0.675000000

                                .--------------------.
          ----------------------|Geometry convergence|-------------------------
          Item                value                   Tolerance       Converged
          ---------------------------------------------------------------------
          Energy change      -0.0008085970            0.0000050000      NO
          RMS gradient        0.0005331365            0.0001000000      NO
          MAX gradient        0.0015320455            0.0003000000      NO
          RMS step            0.0289905428            0.0020000000      NO
          MAX step            0.0800611648            0.0040000000      NO
          -------------------------------------------------------------------------
          ........................................................
          Max(Bonds)      0.0050      Max(Angles)    0.34
          Max(Dihed)        4.59      Max(Improp)    0.00
          ---------------------------------------------------------------------

    ---------------------------------------------------------------------------
                         Redundant Internal Coordinates
                            (Angstroem and degrees)

        Definition                    Value    dE/dq     Step     New-Value
    ----------------------------------------------------------------------------
     1. B(C   1,C   0)                1.4949  0.000801 -0.0027    1.4922   
     2. B(C   2,C   1)                1.3212 -0.000818  0.0001    1.3213   
     3. B(C   3,C   2)                1.4965  0.000473 -0.0010    1.4955   
     4. B(C   4,C   3)                1.5318  0.001532 -0.0050    1.5268   
     5. B(H   5,C   0)                1.0876 -0.000948  0.0017    1.0894   
     6. B(H   6,C   0)                1.0861 -0.000682  0.0008    1.0869   
     7. B(H   7,C   0)                1.0890 -0.001198  0.0027    1.0917   
     8. B(H   8,C   1)                1.0824 -0.000383  0.0010    1.0834   
     9. B(H   9,C   2)                1.0836  0.000224  0.0001    1.0838   
    10. B(H  10,C   3)                1.0921 -0.001114  0.0017    1.0939   
    11. B(H  11,C   3)                1.0911 -0.000494  0.0016    1.0927   
    12. B(H  12,C   4)                1.0856 -0.001104  0.0024    1.0880   
    13. B(H  13,C   4)                1.0871 -0.000756  0.0014    1.0886   
    14. B(H  14,C   4)                1.0862 -0.001034  0.0020    1.0882   
    15. A(H   6,C   0,H   7)          108.49 -0.000209   -0.17    108.32   
    16. A(C   1,C   0,H   5)          110.48 -0.000087    0.07    110.54   
    17. A(C   1,C   0,H   6)          111.24  0.000510    0.23    111.48   
    18. A(C   1,C   0,H   7)          110.04  0.000133   -0.06    109.98   
    19. A(H   5,C   0,H   6)          109.07 -0.000086    0.16    109.23   
    20. A(H   5,C   0,H   7)          107.41 -0.000294   -0.28    107.12   
    21. A(C   2,C   1,H   8)          119.86  0.000019   -0.18    119.68   
    22. A(C   0,C   1,H   8)          115.49  0.000188   -0.16    115.33   
    23. A(C   0,C   1,C   2)          124.65 -0.000209    0.34    124.98   
    24. A(C   3,C   2,H   9)          115.29 -0.000038   -0.22    115.07   
    25. A(C   1,C   2,H   9)          119.75 -0.000363    0.16    119.91   
    26. A(C   1,C   2,C   3)          124.95  0.000401    0.06    125.01   
    27. A(C   4,C   3,H  10)          108.79 -0.000353    0.11    108.91   
    28. A(C   2,C   3,H  10)          109.35  0.000015    0.17    109.52   
    29. A(C   2,C   3,C   4)          111.28  0.000793    0.17    111.45   
    30. A(H  10,C   3,H  11)          108.01 -0.000027   -0.11    107.90   
    31. A(C   4,C   3,H  11)          109.69  0.000041   -0.28    109.41   
    32. A(C   2,C   3,H  11)          109.66 -0.000491   -0.10    109.56   
    33. A(H  13,C   4,H  14)          107.94 -0.000619   -0.01    107.93   
    34. A(H  12,C   4,H  14)          108.67 -0.000302   -0.27    108.40   
    35. A(C   3,C   4,H  14)          110.80  0.000561    0.30    111.10   
    36. A(H  12,C   4,H  13)          108.38 -0.000430   -0.16    108.22   
    37. A(C   3,C   4,H  13)          110.27  0.000409    0.23    110.50   
    38. A(C   3,C   4,H  12)          110.69  0.000328   -0.15    110.54   
    39. D(C   2,C   1,C   0,H   5)   -134.55 -0.000575    2.90   -131.65   
    40. D(C   2,C   1,C   0,H   6)    -13.25 -0.000400    3.34     -9.92   
    41. D(H   8,C   1,C   0,H   6)    167.69 -0.000256    3.05    170.74   
    42. D(C   2,C   1,C   0,H   7)    107.01 -0.000242    3.24    110.26   
    43. D(H   8,C   1,C   0,H   5)     46.39 -0.000431    2.61     49.00   
    44. D(C   3,C   2,C   1,C   0)   -178.22  0.000137   -0.27   -178.49   
    45. D(C   3,C   2,C   1,H   8)      0.80 -0.000011    0.03      0.84   
    46. D(H   9,C   2,C   1,H   8)    179.82  0.000012    0.05    179.87   
    47. D(H   9,C   2,C   1,C   0)      0.80  0.000160   -0.25      0.55   
    48. D(H  11,C   3,C   2,C   1)     -3.97 -0.000274    0.50     -3.46   
    49. D(H  10,C   3,C   2,H   9)     58.72  0.000021    0.58     59.30   
    50. D(H  10,C   3,C   2,C   1)   -122.22  0.000040    0.60   -121.62   
    51. D(C   4,C   3,C   2,H   9)    -61.49 -0.000051    0.16    -61.33   
    52. D(C   4,C   3,C   2,C   1)    117.57 -0.000032    0.18    117.75   
    53. D(H  12,C   4,C   3,C   2)   -171.78  0.000595   -4.01   -175.79   
    54. D(H  13,C   4,C   3,H  11)     69.66  0.000467   -4.38     65.28   
    55. D(H  13,C   4,C   3,H  10)   -172.40  0.000252   -4.59   -176.99   
    56. D(H  13,C   4,C   3,C   2)    -51.86  0.000535   -4.16    -56.02   
    57. D(H  12,C   4,C   3,H  11)    -50.27  0.000527   -4.22    -54.49   
    58. D(H  12,C   4,C   3,H  10)     67.68  0.000312   -4.43     63.24   
    ----------------------------------------------------------------------------

Geometry step timings:
Preparation and reading OPT file:      0.000 s ( 1.078 %)
Internal coordinates            :      0.000 s ( 1.589 %)
B/P matrices and projection     :      0.000 s (23.326 %)
Hessian update/contruction      :      0.000 s (19.977 %)
Making the step                 :      0.000 s (18.672 %)
Converting the step to Cartesian:      0.000 s ( 3.121 %)
Storing new data                :      0.000 s ( 1.646 %)
Checking convergence            :      0.000 s ( 2.554 %)
Final printing                  :      0.000 s (27.980 %)
Total time                      :      0.002 s

Time for energy+gradient        :      0.049 s
Time for complete geometry iter :      0.052 s

         *************************************************************
         *                GEOMETRY OPTIMIZATION CYCLE   5            *
         *************************************************************
---------------------------------
CARTESIAN COORDINATES (ANGSTROEM)
---------------------------------
  C     2.465931    0.636093   -0.182101
  C     1.252963   -0.174202    0.132236
  C     0.075443   -0.032551   -0.450267
  C    -1.148933   -0.822419   -0.113371
  C    -2.267184    0.076302    0.409170
  H     3.330195   -0.010501   -0.329304
  H     2.318713    1.245046   -1.070315
  H     2.698849    1.298728    0.653612
  H     1.381239   -0.918667    0.908830
  H    -0.057621    0.712372   -1.226124
  H    -1.502874   -1.346707   -1.005772
  H    -0.903572   -1.572921    0.641944
  H    -3.123028   -0.519925    0.718764
  H    -1.924598    0.651318    1.267639
  H    -2.595524    0.778033   -0.354940

----------------------------
CARTESIAN COORDINATES (A.U.)
----------------------------
  NO LB    ZA    FRAG    MASS        X           Y           Z
   0 C   6.0000    1    12.011    4.659934    1.202042   -0.344120
   1 C   6.0000    1    12.011    2.367758   -0.329195    0.249889
   2 C   6.0000    1    12.011    0.142567   -0.061513   -0.850881
   3 C   6.0000    1    12.011   -2.171168   -1.554147   -0.214239
   4 C   6.0000    1    12.011   -4.284357    0.144191    0.773219
   5 H   1.0000    1     1.008    6.293157   -0.019844   -0.622293
   6 H   1.0000    1     1.008    4.381733    2.352796   -2.022603
   7 H   1.0000    1     1.008    5.100085    2.454241    1.235147
   8 H   1.0000    1     1.008    2.610163   -1.736028    1.717439
   9 H   1.0000    1     1.008   -0.108889    1.346188   -2.317039
  10 H   1.0000    1     1.008   -2.840020   -2.544908   -1.900634
  11 H   1.0000    1     1.008   -1.707503   -2.972390    1.213098
  12 H   1.0000    1     1.008   -5.901668   -0.982516    1.358266
  13 H   1.0000    1     1.008   -3.636963    1.230813    2.395490
  14 H   1.0000    1     1.008   -4.904830    1.470270   -0.670739

      -----------------------------------------------------------      
     |                   =====================                   |     
     |                           x T B                           |     
     |                   =====================                   |     
     |                         S. Grimme                         |     
     |          Mulliken Center for Theoretical Chemistry        |     
     |                    University of Bonn                     |     
      -----------------------------------------------------------      

   * xtb version 6.7.1 (edcfbbe) compiled by 'albert@albert-system' on 2024-07-22

   xtb is free software: you can redistribute it and/or modify it under
   the terms of the GNU Lesser General Public License as published by
   the Free Software Foundation, either version 3 of the License, or
   (at your option) any later version.
   
   xtb is distributed in the hope that it will be useful,
   but WITHOUT ANY WARRANTY; without even the implied warranty of
   MERCHANTABILITY or FITNESS FOR A PARTICULAR PURPOSE.  See the
   GNU Lesser General Public License for more details.
   
   Cite this work as:
   * C. Bannwarth, E. Caldeweyher, S. Ehlert, A. Hansen, P. Pracht,
     J. Seibert, S. Spicher, S. Grimme, WIREs Comput. Mol. Sci., 2020, 11,
     e01493. DOI: 10.1002/wcms.1493
   
   for GFN2-xTB:
   * C. Bannwarth, S. Ehlert and S. Grimme., J. Chem. Theory Comput., 2019,
     15, 1652-1671. DOI: 10.1021/acs.jctc.8b01176
   for GFN1-xTB:
   * S. Grimme, C. Bannwarth, P. Shushkov, J. Chem. Theory Comput., 2017,
     13, 1989-2009. DOI: 10.1021/acs.jctc.7b00118
   for GFN0-xTB:
   * P. Pracht, E. Caldeweyher, S. Ehlert, S. Grimme, ChemRxiv, 2019, preprint.
     DOI: 10.26434/chemrxiv.8326202.v1
   for GFN-FF:
   * S. Spicher and S. Grimme, Angew. Chem. Int. Ed., 2020, 59, 15665-15673.
     DOI: 10.1002/anie.202004239
   
   for ALPB and GBSA implicit solvation:
   * S. Ehlert, M. Stahn, S. Spicher, S. Grimme, J. Chem. Theory Comput.,
     2021, 17, 4250-4261. DOI: 10.1021/acs.jctc.1c00471
   
   for ddCOSMO and CPCM-X implicit solvation:
   * M. Stahn, S. Ehlert, S. Grimme, J. Phys. Chem. A,
     2023, XX, XXXX-XXXX. DOI: 10.1021/acs.jpca.3c04382
   
   for DFT-D4:
   * E. Caldeweyher, C. Bannwarth and S. Grimme, J. Chem. Phys., 2017,
     147, 034112. DOI: 10.1063/1.4993215
   * E. Caldeweyher, S. Ehlert, A. Hansen, H. Neugebauer, S. Spicher,
     C. Bannwarth and S. Grimme, J. Chem. Phys., 2019, 150, 154122.
     DOI: 10.1063/1.5090222
   * E. Caldeweyher, J.-M. Mewes, S. Ehlert and S. Grimme, Phys. Chem. Chem. Phys.
     2020, 22, 8499-8512. DOI: 10.1039/D0CP00502A
   
   for sTDA-xTB:
   * S. Grimme and C. Bannwarth, J. Chem. Phys., 2016, 145, 054103.
     DOI: 10.1063/1.4959605
   
   in the mass-spec context:
   * V. Asgeirsson, C. Bauer and S. Grimme, Chem. Sci., 2017, 8, 4879.
     DOI: 10.1039/c7sc00601b
   * J. Koopman and S. Grimme, ACS Omega 2019, 4, 12, 15120-15133.
     DOI: 10.1021/acsomega.9b02011
   
   for metadynamics refer to:
   * S. Grimme, J. Chem. Theory Comput., 2019, 155, 2847-2862
     DOI: 10.1021/acs.jctc.9b00143
   
   for SPH calculations refer to:
   * S. Spicher and S. Grimme, J. Chem. Theory Comput., 2021, 17, 1701-1714
     DOI: 10.1021/acs.jctc.0c01306
   
   for ONIOM refer to:
   * C. Plett, A. Katbashev, S. Ehlert, S. Grimme, M. Bursch,
     Phys. Chem. Chem. Phys., 2023, 25, 17860-17868. DOI: 10.1039/D3CP02178E
   
   for DIPRO refer to:
   * J. Kohn, N. Gildemeister, S. Grimme, D. Fazzi, A. Hansen,
     J. Chem. Phys., 2023, just accepted.
   
   for PTB refer to:
   * S. Grimme, M. Mueller, A. Hansen, J. Chem. Phys., 2023, 158, 124111.
     DOI: 10.1063/5.0137838
   
   with help from (in alphabetical order)
   P. Atkinson, C. Bannwarth, F. Bohle, G. Brandenburg, E. Caldeweyher
   M. Checinski, S. Dohm, S. Ehlert, S. Ehrlich, I. Gerasimov, C. Hölzer
   A. Katbashev, J. Kohn, J. Koopman, C. Lavigne, S. Lehtola, F. März, M. Müller,
   F. Musil, H. Neugebauer, J. Pisarek, C. Plett, P. Pracht, F. Pultar,
   J. Seibert, P. Shushkov, S. Spicher, M. Stahn, M. Steiner, T. Strunk,
   J. Stückrath, T. Rose, and J. Unsleber
   
 * started run on 2026/09/11 at 13:10:19.514     
   ID    Z sym.   atoms
    1    6 C      1-5
    2    1 H      6-15

           -------------------------------------------------
          |                Calculation Setup                |
           -------------------------------------------------

          program call               : /apps/eb/ORCA/6.1.1-gompi-2023b-avx2/bin/otool_xtb goat_XTB.xyz --grad -c 0 -u 0 -P 8 --namespace goat --input goat_XTB.input.tmp --acc 0.200000
          hostname                   : a2-7
          calculation namespace      : goat
          coordinate file            : goat_XTB.xyz
          omp threads                :                     8


           -------------------------------------------------
          |                 G F N 2 - x T B                 |
           -------------------------------------------------

        Reference                      10.1021/acs.jctc.8b01176
      * Hamiltonian:
        H0-scaling (s, p, d)           1.850000    2.230000    2.230000
        zeta-weighting                 0.500000
      * Dispersion:
        s8                             2.700000
        a1                             0.520000
        a2                             5.000000
        s9                             5.000000
      * Repulsion:
        kExp                           1.500000    1.000000
        rExp                           1.000000
      * Coulomb:
        alpha                          2.000000
        third order                    shell-resolved
        anisotropic                    true
        a3                             3.000000
        a5                             4.000000
        cn-shift                       1.200000
        cn-exp                         4.000000
        max-rad                        5.000000

q/qsh data taken from xtbrestart
CAMM data taken from xtbrestart

          ...................................................
          :                      SETUP                      :
          :.................................................:
          :  # basis functions                  30          :
          :  # atomic orbitals                  30          :
          :  # shells                           20          :
          :  # electrons                        30          :
          :  max. iterations                   250          :
          :  Hamiltonian                  GFN2-xTB          :
          :  restarted?                       true          :
          :  GBSA solvation                  false          :
          :  PC potential                    false          :
          :  electronic temp.          300.0000000     K    :
          :  accuracy                    0.2000000          :
          :  -> integral cutoff          0.3198970E+02      :
          :  -> integral neglect         0.2000000E-08      :
          :  -> SCF convergence          0.2000000E-06 Eh   :
          :  -> wf. convergence          0.2000000E-04 e    :
          :  Broyden damping             0.4000000          :
          :  net charge                          0          :
          :  unpaired electrons                  0          :
          ...................................................

 iter      E             dE          RMSdq      gap      omega  full diag
   1    -16.0465654 -0.160466E+02  0.958E-02    5.27       0.0  T
   2    -16.0465664 -0.996254E-06  0.571E-02    5.27       1.0  T
   3    -16.0465642  0.219389E-05  0.138E-02    5.27       1.9  T
   4    -16.0465666 -0.238980E-05  0.291E-03    5.27       8.9  T
   5    -16.0465666 -0.907637E-07  0.807E-04    5.27      32.0  T
   6    -16.0465666 -0.206548E-09  0.274E-04    5.27      94.3  T
   7    -16.0465666 -0.506901E-10  0.431E-05    5.27     598.9  T
   8    -16.0465666 -0.340705E-11  0.172E-05    5.27    1499.5  T

   *** convergence criteria satisfied after 8 iterations ***

         #    Occupation            Energy/Eh            Energy/eV
      -------------------------------------------------------------
         1        2.0000           -0.6190447             -16.8451
       ...           ...                  ...                  ...
         9        2.0000           -0.4762985             -12.9607
        10        2.0000           -0.4664556             -12.6929
        11        2.0000           -0.4567031             -12.4275
        12        2.0000           -0.4380513             -11.9200
        13        2.0000           -0.4273449             -11.6286
        14        2.0000           -0.4213579             -11.4657
        15        2.0000           -0.3825564             -10.4099 (HOMO)
        16                         -0.1890132              -5.1433 (LUMO)
        17                          0.0949802               2.5845
        18                          0.1205625               3.2807
        19                          0.1415747               3.8524
        20                          0.1659839               4.5167
       ...                                ...                  ...
        30                          0.6524041              17.7528
      -------------------------------------------------------------
                  HL-Gap            0.1935432 Eh            5.2666 eV
             Fermi-level           -0.2857848 Eh           -7.7766 eV

 SCC (total)                   0 d,  0 h,  0 min,  0.011 sec
 SCC setup                      ...        0 min,  0.000 sec (  2.007%)
 Dispersion                     ...        0 min,  0.000 sec (  3.671%)
 classical contributions        ...        0 min,  0.000 sec (  1.058%)
 integral evaluation            ...        0 min,  0.001 sec (  5.841%)
 iterations                     ...        0 min,  0.009 sec ( 76.926%)
 molecular gradient             ...        0 min,  0.001 sec (  8.824%)
 printout                       ...        0 min,  0.000 sec (  1.347%)

         :::::::::::::::::::::::::::::::::::::::::::::::::::::
         ::                     SUMMARY                     ::
         :::::::::::::::::::::::::::::::::::::::::::::::::::::
         :: total energy             -15.776102473223 Eh    ::
         :: gradient norm              0.004725050811 Eh/a0 ::
         :: HOMO-LUMO gap              5.266579606582 eV    ::
         ::.................................................::
         :: SCC energy               -16.046562119938 Eh    ::
         :: -> isotropic ES            0.003081593234 Eh    ::
         :: -> anisotropic ES          0.004939777674 Eh    ::
         :: -> anisotropic XC          0.011384550052 Eh    ::
         :: -> dispersion             -0.007244606376 Eh    ::
         :: repulsion energy           0.270459646715 Eh    ::
         :: add. restraining           0.000000000000 Eh    ::
         :: total charge              -0.000000000000 e     ::
         :::::::::::::::::::::::::::::::::::::::::::::::::::::


Property printout bound to 'properties.out'

           -------------------------------------------------
          | TOTAL ENERGY              -15.776102473223 Eh   |
          | GRADIENT NORM               0.004725050811 Eh/α |
          | HOMO-LUMO GAP               5.266579606582 eV   |
           -------------------------------------------------

------------------------------------------------------------------------
 * finished run on 2026/09/11 at 13:10:19.547     
------------------------------------------------------------------------
 total:
 * wall-time:     0 d,  0 h,  0 min,  0.033 sec
 *  cpu-time:     0 d,  0 h,  0 min,  0.171 sec
 * ratio c/w:     5.264 speedup
 SCF:
 * wall-time:     0 d,  0 h,  0 min,  0.011 sec
 *  cpu-time:     0 d,  0 h,  0 min,  0.072 sec
 * ratio c/w:     6.386 speedup


-------------------------   --------------------
FINAL SINGLE POINT ENERGY       -15.776102473220
-------------------------   --------------------


-------------
DIPOLE MOMENT
-------------
                                X             Y             Z
Total Dipole Moment    :      0.01800       0.03000       0.01600
                        -----------------------------------------
Magnitude (a.u.)       :      0.03847
Magnitude (Debye)      :      0.09778


------------------
CARTESIAN GRADIENT
------------------

   1   C   :   -0.001219490   -0.000649421   -0.001221491
   2   C   :    0.000108761    0.000405584   -0.000578099
   3   C   :    0.000879299   -0.000926434    0.001893241
   4   C   :   -0.000654545    0.001521081   -0.001088224
   5   C   :    0.001315726   -0.001634818   -0.001207462
   6   H   :    0.000310601    0.000155205    0.000903943
   7   H   :    0.000421206    0.000277578    0.000227312
   8   H   :    0.000237546    0.000237237    0.000037099
   9   H   :    0.000002972   -0.000277414   -0.000194829
  10   H   :   -0.000248571    0.000017429   -0.000259314
  11   H   :   -0.000140508   -0.000090751    0.000262934
  12   H   :   -0.000005381   -0.000154063    0.000125403
  13   H   :    0.000020707    0.000109493    0.000583244
  14   H   :   -0.000477051    0.000575835   -0.000001875
  15   H   :   -0.000551272    0.000433459    0.000518117

Difference to translation invariance:
           :    0.0000000000   -0.0000000000    0.0000000000

Difference to rotation invariance:
           :   -0.0000000135   -0.0000000151    0.0000000073

Norm of the Cartesian gradient     ...    0.0047250508
RMS gradient                       ...    0.0007043690
MAX gradient                       ...    0.0018932409
------------------------------------------------------------------------------
                         ORCA GEOMETRY RELAXATION STEP
------------------------------------------------------------------------------

Reading the OPT-File                    .... done
Getting information on internals        .... done
Copying old internal coords+grads       .... done
Making the new internal coordinates     .... (2022 redundants) done
Validating the new internal coordinates .... (2022 redundants) done
Calculating the B-matrix                .... done
Calculating the G,G- and P matrices     .... done
Transforming gradient to internals      .... done
Projecting the internal gradient        .... done
Number of atoms                         ....  15
Number of internal coordinates          ....  58
Current Energy                          ....   -15.776102473 Eh
Current gradient norm                   ....     0.004725051 Eh/bohr
Maximum allowed component of the step   ....  0.300
Current trust radius                    ....  0.675
Updating the Hessian (BFGS)             .... done
Forming the augmented Hessian           .... done
Diagonalizing the augmented Hessian     .... done
Last element of RFO vector              ....  0.977950269
Lowest eigenvalues of augmented Hessian:
 -0.000205125  0.003409332  0.012099443  0.013763420  0.027237651
Length of the computed step             ....  0.213546550
The final length of the internal step   ....  0.213546550
Converting the step to Cartesian space:
 Initial RMS(Int)=    0.0280400358
Transforming coordinates:
 Iter   0:  RMS(Cart)=    0.0409862347 RMS(Int)=    0.8169243151
 Iter   5:  RMS(Cart)=    0.0000000072 RMS(Int)=    0.0000000059
done
Storing new coordinates                 .... done
The predicted energy change is          ....    -0.000107240
Previously predicted energy change      ....    -0.000177432
Actually observed energy change         ....    -0.000237317
Ratio of predicted to observed change   ....     1.337509214
New trust radius                        ....     0.675000000

                                .--------------------.
          ----------------------|Geometry convergence|-------------------------
          Item                value                   Tolerance       Converged
          ---------------------------------------------------------------------
          Energy change      -0.0002373172            0.0000050000      NO
          RMS gradient        0.0003984588            0.0001000000      NO
          MAX gradient        0.0010991805            0.0003000000      NO
          RMS step            0.0280400358            0.0020000000      NO
          MAX step            0.0683957323            0.0040000000      NO
          -------------------------------------------------------------------------
          ........................................................
          Max(Bonds)      0.0014      Max(Angles)    0.16
          Max(Dihed)        3.92      Max(Improp)    0.00
          ---------------------------------------------------------------------

    ---------------------------------------------------------------------------
                         Redundant Internal Coordinates
                            (Angstroem and degrees)

        Definition                    Value    dE/dq     Step     New-Value
    ----------------------------------------------------------------------------
     1. B(C   1,C   0)                1.4922 -0.000181 -0.0010    1.4912   
     2. B(C   2,C   1)                1.3213 -0.000503  0.0005    1.3218   
     3. B(C   3,C   2)                1.4955 -0.000180 -0.0002    1.4953   
     4. B(C   4,C   3)                1.5268 -0.000566 -0.0014    1.5255   
     5. B(H   5,C   0)                1.0894  0.000032  0.0009    1.0902   
     6. B(H   6,C   0)                1.0869 -0.000087  0.0006    1.0876   
     7. B(H   7,C   0)                1.0917  0.000223  0.0008    1.0925   
     8. B(H   8,C   1)                1.0834  0.000051  0.0004    1.0838   
     9. B(H   9,C   2)                1.0838  0.000228 -0.0003    1.0834   
    10. B(H  10,C   3)                1.0939 -0.000126  0.0010    1.0949   
    11. B(H  11,C   3)                1.0927  0.000191  0.0004    1.0931   
    12. B(H  12,C   4)                1.0880  0.000090  0.0010    1.0890   
    13. B(H  13,C   4)                1.0886  0.000153  0.0004    1.0890   
    14. B(H  14,C   4)                1.0882  0.000082  0.0008    1.0890   
    15. A(H   6,C   0,H   7)          108.33 -0.000461    0.06    108.39   
    16. A(C   1,C   0,H   5)          110.55  0.000051    0.01    110.56   
    17. A(C   1,C   0,H   6)          111.49  0.000839   -0.13    111.36   
    18. A(C   1,C   0,H   7)          109.99  0.000005    0.02    110.00   
    19. A(H   5,C   0,H   6)          109.24  0.000044   -0.07    109.17   
    20. A(H   5,C   0,H   7)          107.12 -0.000543    0.09    107.21   
    21. A(C   2,C   1,H   8)          119.68 -0.000342   -0.02    119.66   
    22. A(C   0,C   1,H   8)          115.33 -0.000149   -0.05    115.29   
    23. A(C   0,C   1,C   2)          124.98  0.000490    0.07    125.06   
    24. A(C   3,C   2,H   9)          115.07 -0.000510   -0.00    115.07   
    25. A(C   1,C   2,H   9)          119.91  0.000018    0.07    119.98   
    26. A(C   1,C   2,C   3)          125.01  0.000492   -0.07    124.94   
    27. A(C   4,C   3,H  10)          108.93 -0.000313    0.07    108.99   
    28. A(C   2,C   3,H  10)          109.53  0.000234   -0.10    109.43   
    29. A(C   2,C   3,C   4)          111.46  0.000915   -0.13    111.32   
    30. A(H  10,C   3,H  11)          107.90  0.000016    0.02    107.92   
    31. A(C   4,C   3,H  11)          109.40 -0.000348    0.01    109.41   
    32. A(C   2,C   3,H  11)          109.55 -0.000529    0.12    109.67   
    33. A(H  13,C   4,H  14)          107.94 -0.000741    0.16    108.11   
    34. A(H  12,C   4,H  14)          108.41 -0.000560   -0.04    108.37   
    35. A(C   3,C   4,H  14)          111.12  0.001099   -0.15    110.96   
    36. A(H  12,C   4,H  13)          108.22 -0.000521    0.11    108.32   
    37. A(C   3,C   4,H  13)          110.51  0.000734   -0.05    110.45   
    38. A(C   3,C   4,H  12)          110.54 -0.000089   -0.05    110.49   
    39. D(C   2,C   1,C   0,H   5)   -131.65 -0.000739    3.67   -127.98   
    40. D(C   2,C   1,C   0,H   6)     -9.92 -0.000075    3.54     -6.38   
    41. D(H   8,C   1,C   0,H   6)    170.73  0.000034    3.23    173.96   
    42. D(C   2,C   1,C   0,H   7)    110.26 -0.000105    3.54    113.80   
    43. D(H   8,C   1,C   0,H   5)     49.01 -0.000630    3.36     52.36   
    44. D(C   3,C   2,C   1,C   0)   -178.49  0.000119   -0.33   -178.81   
    45. D(C   3,C   2,C   1,H   8)      0.83  0.000007   -0.01      0.83   
    46. D(H   9,C   2,C   1,H   8)    179.87 -0.000005    0.01    179.89   
    47. D(H   9,C   2,C   1,C   0)      0.55  0.000107   -0.31      0.24   
    48. D(H  11,C   3,C   2,C   1)     -3.46 -0.000032    0.48     -2.98   
    49. D(H  10,C   3,C   2,H   9)     59.29  0.000131    0.44     59.73   
    50. D(H  10,C   3,C   2,C   1)   -121.63  0.000124    0.46   -121.18   
    51. D(C   4,C   3,C   2,H   9)    -61.32 -0.000222    0.46    -60.87   
    52. D(C   4,C   3,C   2,C   1)    117.76 -0.000230    0.47    118.23   
    53. D(H  12,C   4,C   3,C   2)   -175.80  0.000678   -3.92   -179.72   
    54. D(H  13,C   4,C   3,H  11)     65.29  0.000140   -3.81     61.48   
    55. D(H  13,C   4,C   3,H  10)   -176.99 -0.000221   -3.74   -180.72   
    56. D(H  13,C   4,C   3,C   2)    -56.02  0.000444   -3.86    -59.89   
    57. D(H  12,C   4,C   3,H  11)    -54.49  0.000374   -3.86    -58.35   
    58. D(H  12,C   4,C   3,H  10)     63.24  0.000013   -3.79     59.45   
    ----------------------------------------------------------------------------

Geometry step timings:
Preparation and reading OPT file:      0.000 s ( 1.144 %)
Internal coordinates            :      0.000 s ( 1.487 %)
B/P matrices and projection     :      0.000 s (24.027 %)
Hessian update/contruction      :      0.000 s (18.764 %)
Making the step                 :      0.000 s (24.027 %)
Converting the step to Cartesian:      0.000 s ( 3.089 %)
Storing new data                :      0.000 s ( 1.659 %)
Checking convergence            :      0.000 s ( 2.574 %)
Final printing                  :      0.000 s (23.227 %)
Total time                      :      0.002 s

Time for energy+gradient        :      0.043 s
Time for complete geometry iter :      0.046 s

         *************************************************************
         *                GEOMETRY OPTIMIZATION CYCLE   6            *
         *************************************************************
---------------------------------
CARTESIAN COORDINATES (ANGSTROEM)
---------------------------------
  C     2.465217    0.638320   -0.188483
  C     1.252975   -0.166207    0.138635
  C     0.074662   -0.035629   -0.445890
  C    -1.145943   -0.826432   -0.098539
  C    -2.268729    0.077013    0.401679
  H     3.315519   -0.014106   -0.388204
  H     2.295183    1.278133   -1.051344
  H     2.734939    1.270013    0.661115
  H     1.383311   -0.901171    0.924414
  H    -0.061999    0.698684   -1.230703
  H    -1.492632   -1.369322   -0.983907
  H    -0.900859   -1.561737    0.672215
  H    -3.148471   -0.512783    0.655052
  H    -1.952733    0.619848    1.291263
  H    -2.550438    0.805376   -0.357302

----------------------------
CARTESIAN COORDINATES (A.U.)
----------------------------
  NO LB    ZA    FRAG    MASS        X           Y           Z
   0 C   6.0000    1    12.011    4.658585    1.206250   -0.356182
   1 C   6.0000    1    12.011    2.367779   -0.314086    0.261981
   2 C   6.0000    1    12.011    0.141091   -0.067328   -0.842610
   3 C   6.0000    1    12.011   -2.165518   -1.561731   -0.186212
   4 C   6.0000    1    12.011   -4.287277    0.145533    0.759063
   5 H   1.0000    1     1.008    6.265423   -0.026656   -0.733599
   6 H   1.0000    1     1.008    4.337267    2.415322   -1.986752
   7 H   1.0000    1     1.008    5.168285    2.399977    1.249326
   8 H   1.0000    1     1.008    2.614079   -1.702967    1.746890
   9 H   1.0000    1     1.008   -0.117161    1.320322   -2.325692
  10 H   1.0000    1     1.008   -2.820666   -2.587644   -1.859315
  11 H   1.0000    1     1.008   -1.702377   -2.951255    1.270303
  12 H   1.0000    1     1.008   -5.949749   -0.969019    1.237868
  13 H   1.0000    1     1.008   -3.690131    1.171342    2.440133
  14 H   1.0000    1     1.008   -4.819629    1.521940   -0.675202

      -----------------------------------------------------------      
     |                   =====================                   |     
     |                           x T B                           |     
     |                   =====================                   |     
     |                         S. Grimme                         |     
     |          Mulliken Center for Theoretical Chemistry        |     
     |                    University of Bonn                     |     
      -----------------------------------------------------------      

   * xtb version 6.7.1 (edcfbbe) compiled by 'albert@albert-system' on 2024-07-22

   xtb is free software: you can redistribute it and/or modify it under
   the terms of the GNU Lesser General Public License as published by
   the Free Software Foundation, either version 3 of the License, or
   (at your option) any later version.
   
   xtb is distributed in the hope that it will be useful,
   but WITHOUT ANY WARRANTY; without even the implied warranty of
   MERCHANTABILITY or FITNESS FOR A PARTICULAR PURPOSE.  See the
   GNU Lesser General Public License for more details.
   
   Cite this work as:
   * C. Bannwarth, E. Caldeweyher, S. Ehlert, A. Hansen, P. Pracht,
     J. Seibert, S. Spicher, S. Grimme, WIREs Comput. Mol. Sci., 2020, 11,
     e01493. DOI: 10.1002/wcms.1493
   
   for GFN2-xTB:
   * C. Bannwarth, S. Ehlert and S. Grimme., J. Chem. Theory Comput., 2019,
     15, 1652-1671. DOI: 10.1021/acs.jctc.8b01176
   for GFN1-xTB:
   * S. Grimme, C. Bannwarth, P. Shushkov, J. Chem. Theory Comput., 2017,
     13, 1989-2009. DOI: 10.1021/acs.jctc.7b00118
   for GFN0-xTB:
   * P. Pracht, E. Caldeweyher, S. Ehlert, S. Grimme, ChemRxiv, 2019, preprint.
     DOI: 10.26434/chemrxiv.8326202.v1
   for GFN-FF:
   * S. Spicher and S. Grimme, Angew. Chem. Int. Ed., 2020, 59, 15665-15673.
     DOI: 10.1002/anie.202004239
   
   for ALPB and GBSA implicit solvation:
   * S. Ehlert, M. Stahn, S. Spicher, S. Grimme, J. Chem. Theory Comput.,
     2021, 17, 4250-4261. DOI: 10.1021/acs.jctc.1c00471
   
   for ddCOSMO and CPCM-X implicit solvation:
   * M. Stahn, S. Ehlert, S. Grimme, J. Phys. Chem. A,
     2023, XX, XXXX-XXXX. DOI: 10.1021/acs.jpca.3c04382
   
   for DFT-D4:
   * E. Caldeweyher, C. Bannwarth and S. Grimme, J. Chem. Phys., 2017,
     147, 034112. DOI: 10.1063/1.4993215
   * E. Caldeweyher, S. Ehlert, A. Hansen, H. Neugebauer, S. Spicher,
     C. Bannwarth and S. Grimme, J. Chem. Phys., 2019, 150, 154122.
     DOI: 10.1063/1.5090222
   * E. Caldeweyher, J.-M. Mewes, S. Ehlert and S. Grimme, Phys. Chem. Chem. Phys.
     2020, 22, 8499-8512. DOI: 10.1039/D0CP00502A
   
   for sTDA-xTB:
   * S. Grimme and C. Bannwarth, J. Chem. Phys., 2016, 145, 054103.
     DOI: 10.1063/1.4959605
   
   in the mass-spec context:
   * V. Asgeirsson, C. Bauer and S. Grimme, Chem. Sci., 2017, 8, 4879.
     DOI: 10.1039/c7sc00601b
   * J. Koopman and S. Grimme, ACS Omega 2019, 4, 12, 15120-15133.
     DOI: 10.1021/acsomega.9b02011
   
   for metadynamics refer to:
   * S. Grimme, J. Chem. Theory Comput., 2019, 155, 2847-2862
     DOI: 10.1021/acs.jctc.9b00143
   
   for SPH calculations refer to:
   * S. Spicher and S. Grimme, J. Chem. Theory Comput., 2021, 17, 1701-1714
     DOI: 10.1021/acs.jctc.0c01306
   
   for ONIOM refer to:
   * C. Plett, A. Katbashev, S. Ehlert, S. Grimme, M. Bursch,
     Phys. Chem. Chem. Phys., 2023, 25, 17860-17868. DOI: 10.1039/D3CP02178E
   
   for DIPRO refer to:
   * J. Kohn, N. Gildemeister, S. Grimme, D. Fazzi, A. Hansen,
     J. Chem. Phys., 2023, just accepted.
   
   for PTB refer to:
   * S. Grimme, M. Mueller, A. Hansen, J. Chem. Phys., 2023, 158, 124111.
     DOI: 10.1063/5.0137838
   
   with help from (in alphabetical order)
   P. Atkinson, C. Bannwarth, F. Bohle, G. Brandenburg, E. Caldeweyher
   M. Checinski, S. Dohm, S. Ehlert, S. Ehrlich, I. Gerasimov, C. Hölzer
   A. Katbashev, J. Kohn, J. Koopman, C. Lavigne, S. Lehtola, F. März, M. Müller,
   F. Musil, H. Neugebauer, J. Pisarek, C. Plett, P. Pracht, F. Pultar,
   J. Seibert, P. Shushkov, S. Spicher, M. Stahn, M. Steiner, T. Strunk,
   J. Stückrath, T. Rose, and J. Unsleber
   
 * started run on 2026/09/11 at 13:10:19.560     
   ID    Z sym.   atoms
    1    6 C      1-5
    2    1 H      6-15

           -------------------------------------------------
          |                Calculation Setup                |
           -------------------------------------------------

          program call               : /apps/eb/ORCA/6.1.1-gompi-2023b-avx2/bin/otool_xtb goat_XTB.xyz --grad -c 0 -u 0 -P 8 --namespace goat --input goat_XTB.input.tmp --acc 0.200000
          hostname                   : a2-7
          calculation namespace      : goat
          coordinate file            : goat_XTB.xyz
          omp threads                :                     8


           -------------------------------------------------
          |                 G F N 2 - x T B                 |
           -------------------------------------------------

        Reference                      10.1021/acs.jctc.8b01176
      * Hamiltonian:
        H0-scaling (s, p, d)           1.850000    2.230000    2.230000
        zeta-weighting                 0.500000
      * Dispersion:
        s8                             2.700000
        a1                             0.520000
        a2                             5.000000
        s9                             5.000000
      * Repulsion:
        kExp                           1.500000    1.000000
        rExp                           1.000000
      * Coulomb:
        alpha                          2.000000
        third order                    shell-resolved
        anisotropic                    true
        a3                             3.000000
        a5                             4.000000
        cn-shift                       1.200000
        cn-exp                         4.000000
        max-rad                        5.000000

q/qsh data taken from xtbrestart
CAMM data taken from xtbrestart

          ...................................................
          :                      SETUP                      :
          :.................................................:
          :  # basis functions                  30          :
          :  # atomic orbitals                  30          :
          :  # shells                           20          :
          :  # electrons                        30          :
          :  max. iterations                   250          :
          :  Hamiltonian                  GFN2-xTB          :
          :  restarted?                       true          :
          :  GBSA solvation                  false          :
          :  PC potential                    false          :
          :  electronic temp.          300.0000000     K    :
          :  accuracy                    0.2000000          :
          :  -> integral cutoff          0.3198970E+02      :
          :  -> integral neglect         0.2000000E-08      :
          :  -> SCF convergence          0.2000000E-06 Eh   :
          :  -> wf. convergence          0.2000000E-04 e    :
          :  Broyden damping             0.4000000          :
          :  net charge                          0          :
          :  unpaired electrons                  0          :
          ...................................................

 iter      E             dE          RMSdq      gap      omega  full diag
   1    -16.0460250 -0.160460E+02  0.897E-02    5.26       0.0  T
   2    -16.0460253 -0.309151E-06  0.536E-02    5.26       1.0  T
   3    -16.0460254 -0.605044E-07  0.217E-03    5.26      11.9  T
   4    -16.0460254 -0.119738E-07  0.129E-03    5.26      20.0  T
   5    -16.0460254 -0.218796E-08  0.818E-04    5.26      31.6  T
   6    -16.0460254 -0.482340E-08  0.973E-05    5.26     265.3  T
   7    -16.0460254 -0.129212E-10  0.368E-05    5.26     701.4  T

   *** convergence criteria satisfied after 7 iterations ***

         #    Occupation            Energy/Eh            Energy/eV
      -------------------------------------------------------------
         1        2.0000           -0.6190972             -16.8465
       ...           ...                  ...                  ...
         9        2.0000           -0.4763318             -12.9616
        10        2.0000           -0.4661213             -12.6838
        11        2.0000           -0.4567886             -12.4299
        12        2.0000           -0.4378657             -11.9149
        13        2.0000           -0.4273360             -11.6284
        14        2.0000           -0.4216134             -11.4727
        15        2.0000           -0.3824733             -10.4076 (HOMO)
        16                         -0.1890245              -5.1436 (LUMO)
        17                          0.0958365               2.6078
        18                          0.1198878               3.2623
        19                          0.1422436               3.8706
        20                          0.1658451               4.5129
       ...                                ...                  ...
        30                          0.6515791              17.7304
      -------------------------------------------------------------
                  HL-Gap            0.1934488 Eh            5.2640 eV
             Fermi-level           -0.2857489 Eh           -7.7756 eV

 SCC (total)                   0 d,  0 h,  0 min,  0.012 sec
 SCC setup                      ...        0 min,  0.000 sec (  1.920%)
 Dispersion                     ...        0 min,  0.000 sec (  2.592%)
 classical contributions        ...        0 min,  0.000 sec (  1.218%)
 integral evaluation            ...        0 min,  0.001 sec (  4.795%)
 iterations                     ...        0 min,  0.010 sec ( 76.945%)
 molecular gradient             ...        0 min,  0.001 sec ( 10.806%)
 printout                       ...        0 min,  0.000 sec (  1.501%)

         :::::::::::::::::::::::::::::::::::::::::::::::::::::
         ::                     SUMMARY                     ::
         :::::::::::::::::::::::::::::::::::::::::::::::::::::
         :: total energy             -15.776243061703 Eh    ::
         :: gradient norm              0.005139413759 Eh/a0 ::
         :: HOMO-LUMO gap              5.264010957657 eV    ::
         ::.................................................::
         :: SCC energy               -16.046020943086 Eh    ::
         :: -> isotropic ES            0.003072618100 Eh    ::
         :: -> anisotropic ES          0.004956834922 Eh    ::
         :: -> anisotropic XC          0.011412793099 Eh    ::
         :: -> dispersion             -0.007245616521 Eh    ::
         :: repulsion energy           0.269777881382 Eh    ::
         :: add. restraining           0.000000000000 Eh    ::
         :: total charge               0.000000000000 e     ::
         :::::::::::::::::::::::::::::::::::::::::::::::::::::


Property printout bound to 'properties.out'

           -------------------------------------------------
          | TOTAL ENERGY              -15.776243061703 Eh   |
          | GRADIENT NORM               0.005139413759 Eh/α |
          | HOMO-LUMO GAP               5.264010957657 eV   |
           -------------------------------------------------

------------------------------------------------------------------------
 * finished run on 2026/09/11 at 13:10:19.588     
------------------------------------------------------------------------
 total:
 * wall-time:     0 d,  0 h,  0 min,  0.028 sec
 *  cpu-time:     0 d,  0 h,  0 min,  0.117 sec
 * ratio c/w:     4.190 speedup
 SCF:
 * wall-time:     0 d,  0 h,  0 min,  0.013 sec
 *  cpu-time:     0 d,  0 h,  0 min,  0.060 sec
 * ratio c/w:     4.760 speedup


-------------------------   --------------------
FINAL SINGLE POINT ENERGY       -15.776243061700
-------------------------   --------------------


-------------
DIPOLE MOMENT
-------------
                                X             Y             Z
Total Dipole Moment    :      0.01900       0.02700       0.01300
                        -----------------------------------------
Magnitude (a.u.)       :      0.03548
Magnitude (Debye)      :      0.09019


------------------
CARTESIAN GRADIENT
------------------

   1   C   :   -0.001542798   -0.001366533   -0.001090342
   2   C   :    0.000653602    0.000814910   -0.000526940
   3   C   :    0.000042140   -0.000512559    0.001143029
   4   C   :   -0.000856853    0.001949462   -0.000627260
   5   C   :    0.002266684   -0.001533194   -0.001131836
   6   H   :    0.000637950   -0.000136130    0.000606563
   7   H   :    0.000182933    0.000488908   -0.000005866
   8   H   :    0.000268429    0.000609443    0.000580408
   9   H   :    0.000032635   -0.000343607    0.000018529
  10   H   :   -0.000297129   -0.000082525   -0.000136597
  11   H   :   -0.000257521   -0.000467137   -0.000137565
  12   H   :    0.000044396   -0.000193033    0.000479414
  13   H   :   -0.000467205   -0.000361343    0.000359835
  14   H   :   -0.000205688    0.000441284    0.000490962
  15   H   :   -0.000501574    0.000692054   -0.000022335

Difference to translation invariance:
           :   -0.0000000000    0.0000000000   -0.0000000000

Difference to rotation invariance:
           :   -0.0000000400   -0.0000000170   -0.0000000029

Norm of the Cartesian gradient     ...    0.0051394138
RMS gradient                       ...    0.0007661386
MAX gradient                       ...    0.0022666840
------------------------------------------------------------------------------
                         ORCA GEOMETRY RELAXATION STEP
------------------------------------------------------------------------------

Reading the OPT-File                    .... done
Getting information on internals        .... done
Copying old internal coords+grads       .... done
Making the new internal coordinates     .... (2022 redundants) done
Validating the new internal coordinates .... (2022 redundants) done
Calculating the B-matrix                .... done
Calculating the G,G- and P matrices     .... done
Transforming gradient to internals      .... done
Projecting the internal gradient        .... done
Number of atoms                         ....  15
Number of internal coordinates          ....  58
Current Energy                          ....   -15.776243062 Eh
Current gradient norm                   ....     0.005139414 Eh/bohr
Maximum allowed component of the step   ....  0.300
Current trust radius                    ....  0.675
Updating the Hessian (BFGS)             .... done
Forming the augmented Hessian           .... done
Diagonalizing the augmented Hessian     .... done
Last element of RFO vector              ....  0.990438186
Lowest eigenvalues of augmented Hessian:
 -0.000098358  0.002614516  0.012123644  0.013760351  0.027233441
Length of the computed step             ....  0.139289092
The final length of the internal step   ....  0.139289092
Converting the step to Cartesian space:
 Initial RMS(Int)=    0.0182895538
Transforming coordinates:
 Iter   0:  RMS(Cart)=    0.0288334613 RMS(Int)=    0.8202298994
done
Storing new coordinates                 .... done
The predicted energy change is          ....    -0.000050133
Previously predicted energy change      ....    -0.000107240
Actually observed energy change         ....    -0.000140588
Ratio of predicted to observed change   ....     1.310972671
New trust radius                        ....     0.675000000

                                .--------------------.
          ----------------------|Geometry convergence|-------------------------
          Item                value                   Tolerance       Converged
          ---------------------------------------------------------------------
          Energy change      -0.0001405885            0.0000050000      NO
          RMS gradient        0.0003983622            0.0001000000      NO
          MAX gradient        0.0013541871            0.0003000000      NO
          RMS step            0.0182895538            0.0020000000      NO
          MAX step            0.0549401792            0.0040000000      NO
          -------------------------------------------------------------------------
          ........................................................
          Max(Bonds)      0.0016      Max(Angles)    0.33
          Max(Dihed)        3.15      Max(Improp)    0.00
          ---------------------------------------------------------------------

    ---------------------------------------------------------------------------
                         Redundant Internal Coordinates
                            (Angstroem and degrees)

        Definition                    Value    dE/dq     Step     New-Value
    ----------------------------------------------------------------------------
     1. B(C   1,C   0)                1.4912 -0.000607  0.0006    1.4918   
     2. B(C   2,C   1)                1.3218  0.000016  0.0003    1.3221   
     3. B(C   3,C   2)                1.4953 -0.000434  0.0005    1.4958   
     4. B(C   4,C   3)                1.5255 -0.001354  0.0016    1.5271   
     5. B(H   5,C   0)                1.0902  0.000468 -0.0001    1.0901   
     6. B(H   6,C   0)                1.0876  0.000264  0.0001    1.0877   
     7. B(H   7,C   0)                1.0925  0.000870 -0.0009    1.0916   
     8. B(H   8,C   1)                1.0838  0.000250 -0.0002    1.0836   
     9. B(H   9,C   2)                1.0834  0.000080 -0.0004    1.0831   
    10. B(H  10,C   3)                1.0949  0.000424 -0.0000    1.0949   
    11. B(H  11,C   3)                1.0931  0.000478 -0.0007    1.0924   
    12. B(H  12,C   4)                1.0890  0.000657 -0.0005    1.0886   
    13. B(H  13,C   4)                1.0890  0.000561 -0.0006    1.0884   
    14. B(H  14,C   4)                1.0890  0.000608 -0.0004    1.0886   
    15. A(H   6,C   0,H   7)          108.39 -0.000389    0.19    108.57   
    16. A(C   1,C   0,H   5)          110.57  0.000192   -0.06    110.51   
    17. A(C   1,C   0,H   6)          111.37  0.000549   -0.25    111.12   
    18. A(C   1,C   0,H   7)          110.00 -0.000122    0.08    110.08   
    19. A(H   5,C   0,H   6)          109.19  0.000091   -0.18    109.01   
    20. A(H   5,C   0,H   7)          107.21 -0.000366    0.23    107.44   
    21. A(C   2,C   1,H   8)          119.66 -0.000357    0.07    119.73   
    22. A(C   0,C   1,H   8)          115.29 -0.000230    0.03    115.32   
    23. A(C   0,C   1,C   2)          125.06  0.000587   -0.10    124.95   
    24. A(C   3,C   2,H   9)          115.07 -0.000433    0.11    115.18   
    25. A(C   1,C   2,H   9)          119.98  0.000220   -0.02    119.96   
    26. A(C   1,C   2,C   3)          124.94  0.000213   -0.08    124.86   
    27. A(C   4,C   3,H  10)          109.01 -0.000062   -0.01    109.00   
    28. A(C   2,C   3,H  10)          109.44  0.000227   -0.19    109.25   
    29. A(C   2,C   3,C   4)          111.33  0.000375   -0.19    111.14   
    30. A(H  10,C   3,H  11)          107.92  0.000012    0.07    107.98   
    31. A(C   4,C   3,H  11)          109.40 -0.000365    0.17    109.57   
    32. A(C   2,C   3,H  11)          109.67 -0.000198    0.16    109.83   
    33. A(H  13,C   4,H  14)          108.12 -0.000502    0.21    108.33   
    34. A(H  12,C   4,H  14)          108.39 -0.000273    0.06    108.44   
    35. A(C   3,C   4,H  14)          110.98  0.000818   -0.33    110.64   
    36. A(H  12,C   4,H  13)          108.32 -0.000269    0.19    108.51   
    37. A(C   3,C   4,H  13)          110.46  0.000427   -0.15    110.31   
    38. A(C   3,C   4,H  12)          110.49 -0.000243    0.03    110.52   
    39. D(C   2,C   1,C   0,H   5)   -127.97 -0.000553    3.15   -124.83   
    40. D(C   2,C   1,C   0,H   6)     -6.39  0.000069    2.73     -3.66   
    41. D(H   8,C   1,C   0,H   6)    173.95  0.000113    2.49    176.45   
    42. D(C   2,C   1,C   0,H   7)    113.80 -0.000144    2.85    116.65   
    43. D(H   8,C   1,C   0,H   5)     52.37 -0.000509    2.91     55.27   
    44. D(C   3,C   2,C   1,C   0)   -178.81  0.000077   -0.29   -179.10   
    45. D(C   3,C   2,C   1,H   8)      0.83  0.000032   -0.03      0.80   
    46. D(H   9,C   2,C   1,H   8)    179.89 -0.000001   -0.02    179.87   
    47. D(H   9,C   2,C   1,C   0)      0.24  0.000044   -0.27     -0.03   
    48. D(H  11,C   3,C   2,C   1)     -2.98  0.000117    0.29     -2.69   
    49. D(H  10,C   3,C   2,H   9)     59.72  0.000110    0.22     59.94   
    50. D(H  10,C   3,C   2,C   1)   -121.18  0.000084    0.23   -120.95   
    51. D(C   4,C   3,C   2,H   9)    -60.86 -0.000203    0.47    -60.39   
    52. D(C   4,C   3,C   2,C   1)    118.24 -0.000229    0.48    118.72   
    53. D(H  12,C   4,C   3,C   2)   -179.73  0.000382   -2.17   -181.90   
    54. D(H  13,C   4,C   3,H  11)     61.49 -0.000084   -1.82     59.66   
    55. D(H  13,C   4,C   3,H  10)    179.28 -0.000314   -1.65    177.63   
    56. D(H  13,C   4,C   3,C   2)    -59.89  0.000165   -2.01    -61.90   
    57. D(H  12,C   4,C   3,H  11)    -58.35  0.000133   -1.99    -60.34   
    58. D(H  12,C   4,C   3,H  10)     59.44 -0.000098   -1.82     57.62   
    ----------------------------------------------------------------------------

Geometry step timings:
Preparation and reading OPT file:      0.000 s ( 1.358 %)
Internal coordinates            :      0.000 s ( 1.535 %)
B/P matrices and projection     :      0.000 s (24.498 %)
Hessian update/contruction      :      0.000 s (20.779 %)
Making the step                 :      0.000 s (20.366 %)
Converting the step to Cartesian:      0.000 s ( 2.774 %)
Storing new data                :      0.000 s ( 1.653 %)
Checking convergence            :      0.000 s ( 2.597 %)
Final printing                  :      0.000 s (24.380 %)
Total time                      :      0.002 s

Time for energy+gradient        :      0.039 s
Time for complete geometry iter :      0.041 s

         *************************************************************
         *                GEOMETRY OPTIMIZATION CYCLE   7            *
         *************************************************************
---------------------------------
CARTESIAN COORDINATES (ANGSTROEM)
---------------------------------
  C     2.464490    0.640743   -0.191271
  C     1.253185   -0.162073    0.146079
  C     0.074809   -0.037953   -0.440309
  C    -1.143428   -0.830785   -0.087322
  C    -2.271347    0.078247    0.395739
  H     3.300169   -0.014136   -0.438418
  H     2.273423    1.304096   -1.031775
  H     2.764746    1.244679    0.667018
  H     1.385768   -0.890872    0.936908
  H    -0.062454    0.690762   -1.229721
  H    -1.483304   -1.382536   -0.969802
  H    -0.899933   -1.557133    0.691450
  H    -3.163136   -0.505149    0.617846
  H    -1.970371    0.606665    1.298408
  H    -2.522617    0.815443   -0.364829

----------------------------
CARTESIAN COORDINATES (A.U.)
----------------------------
  NO LB    ZA    FRAG    MASS        X           Y           Z
   0 C   6.0000    1    12.011    4.657212    1.210830   -0.361449
   1 C   6.0000    1    12.011    2.368176   -0.306273    0.276050
   2 C   6.0000    1    12.011    0.141368   -0.071721   -0.832064
   3 C   6.0000    1    12.011   -2.160766   -1.569956   -0.165014
   4 C   6.0000    1    12.011   -4.292223    0.147865    0.747838
   5 H   1.0000    1     1.008    6.236415   -0.026713   -0.828491
   6 H   1.0000    1     1.008    4.296148    2.464385   -1.949772
   7 H   1.0000    1     1.008    5.224614    2.352103    1.260482
   8 H   1.0000    1     1.008    2.618722   -1.683504    1.770499
   9 H   1.0000    1     1.008   -0.118021    1.305350   -2.323836
  10 H   1.0000    1     1.008   -2.803039   -2.612614   -1.832661
  11 H   1.0000    1     1.008   -1.700627   -2.942554    1.306651
  12 H   1.0000    1     1.008   -5.977460   -0.954593    1.167559
  13 H   1.0000    1     1.008   -3.723462    1.146431    2.453636
  14 H   1.0000    1     1.008   -4.767056    1.540964   -0.689427

      -----------------------------------------------------------      
     |                   =====================                   |     
     |                           x T B                           |     
     |                   =====================                   |     
     |                         S. Grimme                         |     
     |          Mulliken Center for Theoretical Chemistry        |     
     |                    University of Bonn                     |     
      -----------------------------------------------------------      

   * xtb version 6.7.1 (edcfbbe) compiled by 'albert@albert-system' on 2024-07-22

   xtb is free software: you can redistribute it and/or modify it under
   the terms of the GNU Lesser General Public License as published by
   the Free Software Foundation, either version 3 of the License, or
   (at your option) any later version.
   
   xtb is distributed in the hope that it will be useful,
   but WITHOUT ANY WARRANTY; without even the implied warranty of
   MERCHANTABILITY or FITNESS FOR A PARTICULAR PURPOSE.  See the
   GNU Lesser General Public License for more details.
   
   Cite this work as:
   * C. Bannwarth, E. Caldeweyher, S. Ehlert, A. Hansen, P. Pracht,
     J. Seibert, S. Spicher, S. Grimme, WIREs Comput. Mol. Sci., 2020, 11,
     e01493. DOI: 10.1002/wcms.1493
   
   for GFN2-xTB:
   * C. Bannwarth, S. Ehlert and S. Grimme., J. Chem. Theory Comput., 2019,
     15, 1652-1671. DOI: 10.1021/acs.jctc.8b01176
   for GFN1-xTB:
   * S. Grimme, C. Bannwarth, P. Shushkov, J. Chem. Theory Comput., 2017,
     13, 1989-2009. DOI: 10.1021/acs.jctc.7b00118
   for GFN0-xTB:
   * P. Pracht, E. Caldeweyher, S. Ehlert, S. Grimme, ChemRxiv, 2019, preprint.
     DOI: 10.26434/chemrxiv.8326202.v1
   for GFN-FF:
   * S. Spicher and S. Grimme, Angew. Chem. Int. Ed., 2020, 59, 15665-15673.
     DOI: 10.1002/anie.202004239
   
   for ALPB and GBSA implicit solvation:
   * S. Ehlert, M. Stahn, S. Spicher, S. Grimme, J. Chem. Theory Comput.,
     2021, 17, 4250-4261. DOI: 10.1021/acs.jctc.1c00471
   
   for ddCOSMO and CPCM-X implicit solvation:
   * M. Stahn, S. Ehlert, S. Grimme, J. Phys. Chem. A,
     2023, XX, XXXX-XXXX. DOI: 10.1021/acs.jpca.3c04382
   
   for DFT-D4:
   * E. Caldeweyher, C. Bannwarth and S. Grimme, J. Chem. Phys., 2017,
     147, 034112. DOI: 10.1063/1.4993215
   * E. Caldeweyher, S. Ehlert, A. Hansen, H. Neugebauer, S. Spicher,
     C. Bannwarth and S. Grimme, J. Chem. Phys., 2019, 150, 154122.
     DOI: 10.1063/1.5090222
   * E. Caldeweyher, J.-M. Mewes, S. Ehlert and S. Grimme, Phys. Chem. Chem. Phys.
     2020, 22, 8499-8512. DOI: 10.1039/D0CP00502A
   
   for sTDA-xTB:
   * S. Grimme and C. Bannwarth, J. Chem. Phys., 2016, 145, 054103.
     DOI: 10.1063/1.4959605
   
   in the mass-spec context:
   * V. Asgeirsson, C. Bauer and S. Grimme, Chem. Sci., 2017, 8, 4879.
     DOI: 10.1039/c7sc00601b
   * J. Koopman and S. Grimme, ACS Omega 2019, 4, 12, 15120-15133.
     DOI: 10.1021/acsomega.9b02011
   
   for metadynamics refer to:
   * S. Grimme, J. Chem. Theory Comput., 2019, 155, 2847-2862
     DOI: 10.1021/acs.jctc.9b00143
   
   for SPH calculations refer to:
   * S. Spicher and S. Grimme, J. Chem. Theory Comput., 2021, 17, 1701-1714
     DOI: 10.1021/acs.jctc.0c01306
   
   for ONIOM refer to:
   * C. Plett, A. Katbashev, S. Ehlert, S. Grimme, M. Bursch,
     Phys. Chem. Chem. Phys., 2023, 25, 17860-17868. DOI: 10.1039/D3CP02178E
   
   for DIPRO refer to:
   * J. Kohn, N. Gildemeister, S. Grimme, D. Fazzi, A. Hansen,
     J. Chem. Phys., 2023, just accepted.
   
   for PTB refer to:
   * S. Grimme, M. Mueller, A. Hansen, J. Chem. Phys., 2023, 158, 124111.
     DOI: 10.1063/5.0137838
   
   with help from (in alphabetical order)
   P. Atkinson, C. Bannwarth, F. Bohle, G. Brandenburg, E. Caldeweyher
   M. Checinski, S. Dohm, S. Ehlert, S. Ehrlich, I. Gerasimov, C. Hölzer
   A. Katbashev, J. Kohn, J. Koopman, C. Lavigne, S. Lehtola, F. März, M. Müller,
   F. Musil, H. Neugebauer, J. Pisarek, C. Plett, P. Pracht, F. Pultar,
   J. Seibert, P. Shushkov, S. Spicher, M. Stahn, M. Steiner, T. Strunk,
   J. Stückrath, T. Rose, and J. Unsleber
   
 * started run on 2026/09/11 at 13:10:19.601     
   ID    Z sym.   atoms
    1    6 C      1-5
    2    1 H      6-15

           -------------------------------------------------
          |                Calculation Setup                |
           -------------------------------------------------

          program call               : /apps/eb/ORCA/6.1.1-gompi-2023b-avx2/bin/otool_xtb goat_XTB.xyz --grad -c 0 -u 0 -P 8 --namespace goat --input goat_XTB.input.tmp --acc 0.200000
          hostname                   : a2-7
          calculation namespace      : goat
          coordinate file            : goat_XTB.xyz
          omp threads                :                     8


           -------------------------------------------------
          |                 G F N 2 - x T B                 |
           -------------------------------------------------

        Reference                      10.1021/acs.jctc.8b01176
      * Hamiltonian:
        H0-scaling (s, p, d)           1.850000    2.230000    2.230000
        zeta-weighting                 0.500000
      * Dispersion:
        s8                             2.700000
        a1                             0.520000
        a2                             5.000000
        s9                             5.000000
      * Repulsion:
        kExp                           1.500000    1.000000
        rExp                           1.000000
      * Coulomb:
        alpha                          2.000000
        third order                    shell-resolved
        anisotropic                    true
        a3                             3.000000
        a5                             4.000000
        cn-shift                       1.200000
        cn-exp                         4.000000
        max-rad                        5.000000

q/qsh data taken from xtbrestart
CAMM data taken from xtbrestart

          ...................................................
          :                      SETUP                      :
          :.................................................:
          :  # basis functions                  30          :
          :  # atomic orbitals                  30          :
          :  # shells                           20          :
          :  # electrons                        30          :
          :  max. iterations                   250          :
          :  Hamiltonian                  GFN2-xTB          :
          :  restarted?                       true          :
          :  GBSA solvation                  false          :
          :  PC potential                    false          :
          :  electronic temp.          300.0000000     K    :
          :  accuracy                    0.2000000          :
          :  -> integral cutoff          0.3198970E+02      :
          :  -> integral neglect         0.2000000E-08      :
          :  -> SCF convergence          0.2000000E-06 Eh   :
          :  -> wf. convergence          0.2000000E-04 e    :
          :  Broyden damping             0.4000000          :
          :  net charge                          0          :
          :  unpaired electrons                  0          :
          ...................................................

 iter      E             dE          RMSdq      gap      omega  full diag
   1    -16.0462108 -0.160462E+02  0.614E-02    5.26       0.0  T
   2    -16.0462109 -0.160155E-06  0.367E-02    5.26       1.0  T
   3    -16.0462102  0.672018E-06  0.756E-03    5.26       3.4  T
   4    -16.0462110 -0.767207E-06  0.120E-03    5.26      21.5  T
   5    -16.0462110 -0.459896E-08  0.434E-04    5.26      59.4  T
   6    -16.0462110 -0.117918E-09  0.102E-04    5.26     253.3  T
   7    -16.0462110 -0.188578E-10  0.348E-05    5.26     741.7  T

   *** convergence criteria satisfied after 7 iterations ***

         #    Occupation            Energy/Eh            Energy/eV
      -------------------------------------------------------------
         1        2.0000           -0.6190566             -16.8454
       ...           ...                  ...                  ...
         9        2.0000           -0.4763293             -12.9616
        10        2.0000           -0.4658583             -12.6766
        11        2.0000           -0.4566898             -12.4272
        12        2.0000           -0.4378478             -11.9144
        13        2.0000           -0.4273940             -11.6300
        14        2.0000           -0.4218787             -11.4799
        15        2.0000           -0.3824415             -10.4068 (HOMO)
        16                         -0.1890168              -5.1434 (LUMO)
        17                          0.0958777               2.6090
        18                          0.1200583               3.2670
        19                          0.1409473               3.8354
        20                          0.1665168               4.5312
       ...                                ...                  ...
        30                          0.6506197              17.7043
      -------------------------------------------------------------
                  HL-Gap            0.1934246 Eh            5.2634 eV
             Fermi-level           -0.2857291 Eh           -7.7751 eV

 SCC (total)                   0 d,  0 h,  0 min,  0.018 sec
 SCC setup                      ...        0 min,  0.000 sec (  1.418%)
 Dispersion                     ...        0 min,  0.000 sec (  1.804%)
 classical contributions        ...        0 min,  0.000 sec (  0.859%)
 integral evaluation            ...        0 min,  0.001 sec (  3.398%)
 iterations                     ...        0 min,  0.014 sec ( 78.516%)
 molecular gradient             ...        0 min,  0.002 sec ( 12.404%)
 printout                       ...        0 min,  0.000 sec (  1.425%)

         :::::::::::::::::::::::::::::::::::::::::::::::::::::
         ::                     SUMMARY                     ::
         :::::::::::::::::::::::::::::::::::::::::::::::::::::
         :: total energy             -15.776307175488 Eh    ::
         :: gradient norm              0.002611723875 Eh/a0 ::
         :: HOMO-LUMO gap              5.263351911469 eV    ::
         ::.................................................::
         :: SCC energy               -16.046206569813 Eh    ::
         :: -> isotropic ES            0.003089810688 Eh    ::
         :: -> anisotropic ES          0.004955145012 Eh    ::
         :: -> anisotropic XC          0.011427027692 Eh    ::
         :: -> dispersion             -0.007245551077 Eh    ::
         :: repulsion energy           0.269899394325 Eh    ::
         :: add. restraining           0.000000000000 Eh    ::
         :: total charge               0.000000000000 e     ::
         :::::::::::::::::::::::::::::::::::::::::::::::::::::


Property printout bound to 'properties.out'

           -------------------------------------------------
          | TOTAL ENERGY              -15.776307175488 Eh   |
          | GRADIENT NORM               0.002611723875 Eh/α |
          | HOMO-LUMO GAP               5.263351911469 eV   |
           -------------------------------------------------

------------------------------------------------------------------------
 * finished run on 2026/09/11 at 13:10:19.635     
------------------------------------------------------------------------
 total:
 * wall-time:     0 d,  0 h,  0 min,  0.034 sec
 *  cpu-time:     0 d,  0 h,  0 min,  0.141 sec
 * ratio c/w:     4.186 speedup
 SCF:
 * wall-time:     0 d,  0 h,  0 min,  0.018 sec
 *  cpu-time:     0 d,  0 h,  0 min,  0.082 sec
 * ratio c/w:     4.602 speedup


-------------------------   --------------------
FINAL SINGLE POINT ENERGY       -15.776307175490
-------------------------   --------------------


-------------
DIPOLE MOMENT
-------------
                                X             Y             Z
Total Dipole Moment    :      0.01900       0.02400       0.00800
                        -----------------------------------------
Magnitude (a.u.)       :      0.03164
Magnitude (Debye)      :      0.08042


------------------
CARTESIAN GRADIENT
------------------

   1   C   :   -0.000715863   -0.000971008   -0.000462327
   2   C   :    0.000522563    0.000486957   -0.000222784
   3   C   :   -0.000380805    0.000107647    0.000192987
   4   C   :   -0.000387091    0.000862593   -0.000053972
   5   C   :    0.001205103   -0.000511348   -0.000417511
   6   H   :    0.000394991   -0.000092149    0.000221296
   7   H   :   -0.000013794    0.000278945   -0.000086499
   8   H   :    0.000074984    0.000435031    0.000433603
   9   H   :    0.000022883   -0.000223214    0.000029409
  10   H   :   -0.000137419   -0.000101693   -0.000010917
  11   H   :   -0.000102723   -0.000353700   -0.000186242
  12   H   :    0.000005974   -0.000100151    0.000312599
  13   H   :   -0.000349684   -0.000300800    0.000042268
  14   H   :    0.000010660    0.000102805    0.000386149
  15   H   :   -0.000149780    0.000380087   -0.000178059

Difference to translation invariance:
           :    0.0000000000    0.0000000000   -0.0000000000

Difference to rotation invariance:
           :   -0.0000000304   -0.0000000070   -0.0000000046

Norm of the Cartesian gradient     ...    0.0026117239
RMS gradient                       ...    0.0003893328
MAX gradient                       ...    0.0012051032
------------------------------------------------------------------------------
                         ORCA GEOMETRY RELAXATION STEP
------------------------------------------------------------------------------

Reading the OPT-File                    .... done
Getting information on internals        .... done
Copying old internal coords+grads       .... done
Making the new internal coordinates     .... (2022 redundants) done
Validating the new internal coordinates .... (2022 redundants) done
Calculating the B-matrix                .... done
Calculating the G,G- and P matrices     .... done
Transforming gradient to internals      .... done
Projecting the internal gradient        .... done
Number of atoms                         ....  15
Number of internal coordinates          ....  58
Current Energy                          ....   -15.776307175 Eh
Current gradient norm                   ....     0.002611724 Eh/bohr
Maximum allowed component of the step   ....  0.300
Current trust radius                    ....  0.675
Updating the Hessian (BFGS)             .... done
Forming the augmented Hessian           .... done
Diagonalizing the augmented Hessian     .... done
Last element of RFO vector              ....  0.997954783
Lowest eigenvalues of augmented Hessian:
 -0.000030963  0.002505906  0.010807363  0.013761947  0.027220108
Length of the computed step             ....  0.064054790
The final length of the internal step   ....  0.064054790
Converting the step to Cartesian space:
 Initial RMS(Int)=    0.0084108059
Transforming coordinates:
 Iter   0:  RMS(Cart)=    0.0141314374 RMS(Int)=    0.0084065109
done
Storing new coordinates                 .... done
The predicted energy change is          ....    -0.000015545
Previously predicted energy change      ....    -0.000050133
Actually observed energy change         ....    -0.000064114
Ratio of predicted to observed change   ....     1.278874466
New trust radius                        ....     0.675000000

                                .--------------------.
          ----------------------|Geometry convergence|-------------------------
          Item                value                   Tolerance       Converged
          ---------------------------------------------------------------------
          Energy change      -0.0000641138            0.0000050000      NO
          RMS gradient        0.0002264317            0.0001000000      NO
          MAX gradient        0.0007779554            0.0003000000      NO
          RMS step            0.0084108059            0.0020000000      NO
          MAX step            0.0314509311            0.0040000000      NO
          -------------------------------------------------------------------------
          ........................................................
          Max(Bonds)      0.0016      Max(Angles)    0.20
          Max(Dihed)        1.80      Max(Improp)    0.00
          ---------------------------------------------------------------------

    ---------------------------------------------------------------------------
                         Redundant Internal Coordinates
                            (Angstroem and degrees)

        Definition                    Value    dE/dq     Step     New-Value
    ----------------------------------------------------------------------------
     1. B(C   1,C   0)                1.4918 -0.000423  0.0008    1.4927   
     2. B(C   2,C   1)                1.3221  0.000224 -0.0000    1.3220   
     3. B(C   3,C   2)                1.4958 -0.000254  0.0004    1.4962   
     4. B(C   4,C   3)                1.5271 -0.000778  0.0016    1.5287   
     5. B(H   5,C   0)                1.0901  0.000308 -0.0004    1.0897   
     6. B(H   6,C   0)                1.0877  0.000239 -0.0002    1.0874   
     7. B(H   7,C   0)                1.0916  0.000602 -0.0012    1.0904   
     8. B(H   8,C   1)                1.0836  0.000174 -0.0003    1.0833   
     9. B(H   9,C   2)                1.0831 -0.000043 -0.0001    1.0830   
    10. B(H  10,C   3)                1.0949  0.000360 -0.0005    1.0944   
    11. B(H  11,C   3)                1.0924  0.000291 -0.0007    1.0918   
    12. B(H  12,C   4)                1.0886  0.000456 -0.0008    1.0878   
    13. B(H  13,C   4)                1.0884  0.000373 -0.0007    1.0877   
    14. B(H  14,C   4)                1.0886  0.000416 -0.0006    1.0880   
    15. A(H   6,C   0,H   7)          108.57 -0.000173    0.15    108.72   
    16. A(C   1,C   0,H   5)          110.51  0.000239   -0.09    110.43   
    17. A(C   1,C   0,H   6)          111.12  0.000101   -0.13    110.99   
    18. A(C   1,C   0,H   7)          110.08 -0.000155    0.08    110.15   
    19. A(H   5,C   0,H   6)          109.02  0.000059   -0.13    108.89   
    20. A(H   5,C   0,H   7)          107.44 -0.000083    0.13    107.58   
    21. A(C   2,C   1,H   8)          119.73 -0.000195    0.07    119.80   
    22. A(C   0,C   1,H   8)          115.32 -0.000119    0.04    115.35   
    23. A(C   0,C   1,C   2)          124.95  0.000313   -0.10    124.85   
    24. A(C   3,C   2,H   9)          115.18 -0.000128    0.07    115.25   
    25. A(C   1,C   2,H   9)          119.96  0.000200   -0.05    119.91   
    26. A(C   1,C   2,C   3)          124.86 -0.000072   -0.02    124.83   
    27. A(C   4,C   3,H  10)          109.01  0.000140   -0.06    108.95   
    28. A(C   2,C   3,H  10)          109.25  0.000081   -0.10    109.15   
    29. A(C   2,C   3,C   4)          111.14 -0.000153   -0.06    111.08   
    30. A(H  10,C   3,H  11)          107.98 -0.000026    0.05    108.03   
    31. A(C   4,C   3,H  11)          109.57 -0.000149    0.12    109.69   
    32. A(C   2,C   3,H  11)          109.82  0.000111    0.05    109.88   
    33. A(H  13,C   4,H  14)          108.33 -0.000140    0.11    108.44   
    34. A(H  12,C   4,H  14)          108.44  0.000027    0.03    108.47   
    35. A(C   3,C   4,H  14)          110.65  0.000236   -0.20    110.45   
    36. A(H  12,C   4,H  13)          108.51 -0.000011    0.11    108.62   
    37. A(C   3,C   4,H  13)          110.31  0.000023   -0.07    110.24   
    38. A(C   3,C   4,H  12)          110.53 -0.000140    0.04    110.56   
    39. D(C   2,C   1,C   0,H   5)   -124.82 -0.000254    1.80   -123.02   
    40. D(C   2,C   1,C   0,H   6)     -3.66  0.000051    1.50     -2.16   
    41. D(H   8,C   1,C   0,H   6)    176.44  0.000049    1.37    177.81   
    42. D(C   2,C   1,C   0,H   7)    116.65 -0.000203    1.65    118.30   
    43. D(H   8,C   1,C   0,H   5)     55.28 -0.000255    1.67     56.95   
    44. D(C   3,C   2,C   1,C   0)   -179.10  0.000035   -0.17   -179.27   
    45. D(C   3,C   2,C   1,H   8)      0.80  0.000037   -0.03      0.76   
    46. D(H   9,C   2,C   1,H   8)    179.87  0.000014   -0.02    179.85   
    47. D(H   9,C   2,C   1,C   0)     -0.03  0.000012   -0.16     -0.19   
    48. D(H  11,C   3,C   2,C   1)     -2.69  0.000104    0.09     -2.60   
    49. D(H  10,C   3,C   2,H   9)     59.93  0.000041    0.06     59.99   
    50. D(H  10,C   3,C   2,C   1)   -120.95  0.000022    0.07   -120.89   
    51. D(C   4,C   3,C   2,H   9)    -60.39 -0.000090    0.24    -60.15   
    52. D(C   4,C   3,C   2,C   1)    118.72 -0.000109    0.25    118.97   
    53. D(H  12,C   4,C   3,C   2)    178.10  0.000020   -0.25    177.85   
    54. D(H  13,C   4,C   3,H  11)     59.66 -0.000129   -0.03     59.64   
    55. D(H  13,C   4,C   3,H  10)    177.63 -0.000165    0.06    177.70   
    56. D(H  13,C   4,C   3,C   2)    -61.90 -0.000069   -0.14    -62.04   
    57. D(H  12,C   4,C   3,H  11)    -60.34 -0.000040   -0.14    -60.48   
    58. D(H  12,C   4,C   3,H  10)     57.63 -0.000076   -0.05     57.58   
    ----------------------------------------------------------------------------

Geometry step timings:
Preparation and reading OPT file:      0.000 s ( 1.201 %)
Internal coordinates            :      0.000 s ( 2.001 %)
B/P matrices and projection     :      0.000 s (26.930 %)
Hessian update/contruction      :      0.000 s (15.609 %)
Making the step                 :      0.000 s (24.414 %)
Converting the step to Cartesian:      0.000 s ( 2.516 %)
Storing new data                :      0.000 s ( 1.658 %)
Checking convergence            :      0.000 s ( 2.573 %)
Final printing                  :      0.000 s (23.099 %)
Total time                      :      0.002 s

Time for energy+gradient        :      0.044 s
Time for complete geometry iter :      0.047 s

         *************************************************************
         *                GEOMETRY OPTIMIZATION CYCLE   8            *
         *************************************************************
---------------------------------
CARTESIAN COORDINATES (ANGSTROEM)
---------------------------------
  C     2.464633    0.641994   -0.191230
  C     1.253539   -0.160653    0.150965
  C     0.075617   -0.038654   -0.436703
  C    -1.142226   -0.832547   -0.082923
  C    -2.273819    0.078747    0.392346
  H     3.290370   -0.013831   -0.466174
  H     2.262429    1.319020   -1.017819
  H     2.782872    1.228169    0.671414
  H     1.387146   -0.887034    0.943407
  H    -0.060710    0.688675   -1.227433
  H    -1.478524   -1.386249   -0.964991
  H    -0.899868   -1.555959    0.698010
  H    -3.166599   -0.503004    0.611072
  H    -1.975917    0.609840    1.293674
  H    -2.518942    0.811485   -0.373615

----------------------------
CARTESIAN COORDINATES (A.U.)
----------------------------
  NO LB    ZA    FRAG    MASS        X           Y           Z
   0 C   6.0000    1    12.011    4.657482    1.213193   -0.361372
   1 C   6.0000    1    12.011    2.368846   -0.303590    0.285282
   2 C   6.0000    1    12.011    0.142896   -0.073046   -0.825249
   3 C   6.0000    1    12.011   -2.158495   -1.573285   -0.156701
   4 C   6.0000    1    12.011   -4.296894    0.148809    0.741427
   5 H   1.0000    1     1.008    6.217898   -0.026137   -0.880942
   6 H   1.0000    1     1.008    4.275371    2.492587   -1.923400
   7 H   1.0000    1     1.008    5.258865    2.320904    1.268788
   8 H   1.0000    1     1.008    2.621325   -1.676252    1.782780
   9 H   1.0000    1     1.008   -0.114726    1.301408   -2.319512
  10 H   1.0000    1     1.008   -2.794006   -2.619632   -1.823569
  11 H   1.0000    1     1.008   -1.700504   -2.940335    1.319048
  12 H   1.0000    1     1.008   -5.984005   -0.950540    1.154759
  13 H   1.0000    1     1.008   -3.733943    1.152431    2.444689
  14 H   1.0000    1     1.008   -4.760111    1.533485   -0.706030

      -----------------------------------------------------------      
     |                   =====================                   |     
     |                           x T B                           |     
     |                   =====================                   |     
     |                         S. Grimme                         |     
     |          Mulliken Center for Theoretical Chemistry        |     
     |                    University of Bonn                     |     
      -----------------------------------------------------------      

   * xtb version 6.7.1 (edcfbbe) compiled by 'albert@albert-system' on 2024-07-22

   xtb is free software: you can redistribute it and/or modify it under
   the terms of the GNU Lesser General Public License as published by
   the Free Software Foundation, either version 3 of the License, or
   (at your option) any later version.
   
   xtb is distributed in the hope that it will be useful,
   but WITHOUT ANY WARRANTY; without even the implied warranty of
   MERCHANTABILITY or FITNESS FOR A PARTICULAR PURPOSE.  See the
   GNU Lesser General Public License for more details.
   
   Cite this work as:
   * C. Bannwarth, E. Caldeweyher, S. Ehlert, A. Hansen, P. Pracht,
     J. Seibert, S. Spicher, S. Grimme, WIREs Comput. Mol. Sci., 2020, 11,
     e01493. DOI: 10.1002/wcms.1493
   
   for GFN2-xTB:
   * C. Bannwarth, S. Ehlert and S. Grimme., J. Chem. Theory Comput., 2019,
     15, 1652-1671. DOI: 10.1021/acs.jctc.8b01176
   for GFN1-xTB:
   * S. Grimme, C. Bannwarth, P. Shushkov, J. Chem. Theory Comput., 2017,
     13, 1989-2009. DOI: 10.1021/acs.jctc.7b00118
   for GFN0-xTB:
   * P. Pracht, E. Caldeweyher, S. Ehlert, S. Grimme, ChemRxiv, 2019, preprint.
     DOI: 10.26434/chemrxiv.8326202.v1
   for GFN-FF:
   * S. Spicher and S. Grimme, Angew. Chem. Int. Ed., 2020, 59, 15665-15673.
     DOI: 10.1002/anie.202004239
   
   for ALPB and GBSA implicit solvation:
   * S. Ehlert, M. Stahn, S. Spicher, S. Grimme, J. Chem. Theory Comput.,
     2021, 17, 4250-4261. DOI: 10.1021/acs.jctc.1c00471
   
   for ddCOSMO and CPCM-X implicit solvation:
   * M. Stahn, S. Ehlert, S. Grimme, J. Phys. Chem. A,
     2023, XX, XXXX-XXXX. DOI: 10.1021/acs.jpca.3c04382
   
   for DFT-D4:
   * E. Caldeweyher, C. Bannwarth and S. Grimme, J. Chem. Phys., 2017,
     147, 034112. DOI: 10.1063/1.4993215
   * E. Caldeweyher, S. Ehlert, A. Hansen, H. Neugebauer, S. Spicher,
     C. Bannwarth and S. Grimme, J. Chem. Phys., 2019, 150, 154122.
     DOI: 10.1063/1.5090222
   * E. Caldeweyher, J.-M. Mewes, S. Ehlert and S. Grimme, Phys. Chem. Chem. Phys.
     2020, 22, 8499-8512. DOI: 10.1039/D0CP00502A
   
   for sTDA-xTB:
   * S. Grimme and C. Bannwarth, J. Chem. Phys., 2016, 145, 054103.
     DOI: 10.1063/1.4959605
   
   in the mass-spec context:
   * V. Asgeirsson, C. Bauer and S. Grimme, Chem. Sci., 2017, 8, 4879.
     DOI: 10.1039/c7sc00601b
   * J. Koopman and S. Grimme, ACS Omega 2019, 4, 12, 15120-15133.
     DOI: 10.1021/acsomega.9b02011
   
   for metadynamics refer to:
   * S. Grimme, J. Chem. Theory Comput., 2019, 155, 2847-2862
     DOI: 10.1021/acs.jctc.9b00143
   
   for SPH calculations refer to:
   * S. Spicher and S. Grimme, J. Chem. Theory Comput., 2021, 17, 1701-1714
     DOI: 10.1021/acs.jctc.0c01306
   
   for ONIOM refer to:
   * C. Plett, A. Katbashev, S. Ehlert, S. Grimme, M. Bursch,
     Phys. Chem. Chem. Phys., 2023, 25, 17860-17868. DOI: 10.1039/D3CP02178E
   
   for DIPRO refer to:
   * J. Kohn, N. Gildemeister, S. Grimme, D. Fazzi, A. Hansen,
     J. Chem. Phys., 2023, just accepted.
   
   for PTB refer to:
   * S. Grimme, M. Mueller, A. Hansen, J. Chem. Phys., 2023, 158, 124111.
     DOI: 10.1063/5.0137838
   
   with help from (in alphabetical order)
   P. Atkinson, C. Bannwarth, F. Bohle, G. Brandenburg, E. Caldeweyher
   M. Checinski, S. Dohm, S. Ehlert, S. Ehrlich, I. Gerasimov, C. Hölzer
   A. Katbashev, J. Kohn, J. Koopman, C. Lavigne, S. Lehtola, F. März, M. Müller,
   F. Musil, H. Neugebauer, J. Pisarek, C. Plett, P. Pracht, F. Pultar,
   J. Seibert, P. Shushkov, S. Spicher, M. Stahn, M. Steiner, T. Strunk,
   J. Stückrath, T. Rose, and J. Unsleber
   
 * started run on 2026/09/11 at 13:10:19.648     
   ID    Z sym.   atoms
    1    6 C      1-5
    2    1 H      6-15

           -------------------------------------------------
          |                Calculation Setup                |
           -------------------------------------------------

          program call               : /apps/eb/ORCA/6.1.1-gompi-2023b-avx2/bin/otool_xtb goat_XTB.xyz --grad -c 0 -u 0 -P 8 --namespace goat --input goat_XTB.input.tmp --acc 0.200000
          hostname                   : a2-7
          calculation namespace      : goat
          coordinate file            : goat_XTB.xyz
          omp threads                :                     8


           -------------------------------------------------
          |                 G F N 2 - x T B                 |
           -------------------------------------------------

        Reference                      10.1021/acs.jctc.8b01176
      * Hamiltonian:
        H0-scaling (s, p, d)           1.850000    2.230000    2.230000
        zeta-weighting                 0.500000
      * Dispersion:
        s8                             2.700000
        a1                             0.520000
        a2                             5.000000
        s9                             5.000000
      * Repulsion:
        kExp                           1.500000    1.000000
        rExp                           1.000000
      * Coulomb:
        alpha                          2.000000
        third order                    shell-resolved
        anisotropic                    true
        a3                             3.000000
        a5                             4.000000
        cn-shift                       1.200000
        cn-exp                         4.000000
        max-rad                        5.000000

q/qsh data taken from xtbrestart
CAMM data taken from xtbrestart

          ...................................................
          :                      SETUP                      :
          :.................................................:
          :  # basis functions                  30          :
          :  # atomic orbitals                  30          :
          :  # shells                           20          :
          :  # electrons                        30          :
          :  max. iterations                   250          :
          :  Hamiltonian                  GFN2-xTB          :
          :  restarted?                       true          :
          :  GBSA solvation                  false          :
          :  PC potential                    false          :
          :  electronic temp.          300.0000000     K    :
          :  accuracy                    0.2000000          :
          :  -> integral cutoff          0.3198970E+02      :
          :  -> integral neglect         0.2000000E-08      :
          :  -> SCF convergence          0.2000000E-06 Eh   :
          :  -> wf. convergence          0.2000000E-04 e    :
          :  Broyden damping             0.4000000          :
          :  net charge                          0          :
          :  unpaired electrons                  0          :
          ...................................................

 iter      E             dE          RMSdq      gap      omega  full diag
   1    -16.0466342 -0.160466E+02  0.289E-02    5.26       0.0  T
   2    -16.0466343 -0.111644E-06  0.172E-02    5.26       1.5  T
   3    -16.0466341  0.218217E-06  0.442E-03    5.26       5.8  T
   4    -16.0466343 -0.239920E-06  0.996E-04    5.26      25.9  T
   5    -16.0466343 -0.983529E-08  0.271E-04    5.26      95.3  T
   6    -16.0466343 -0.537845E-10  0.904E-05    5.26     285.6  T
   7    -16.0466343 -0.712319E-11  0.202E-05    5.26    1277.1  T

   *** convergence criteria satisfied after 7 iterations ***

         #    Occupation            Energy/Eh            Energy/eV
      -------------------------------------------------------------
         1        2.0000           -0.6190059             -16.8440
       ...           ...                  ...                  ...
         9        2.0000           -0.4763168             -12.9612
        10        2.0000           -0.4657756             -12.6744
        11        2.0000           -0.4565832             -12.4243
        12        2.0000           -0.4379091             -11.9161
        13        2.0000           -0.4274741             -11.6322
        14        2.0000           -0.4219668             -11.4823
        15        2.0000           -0.3824623             -10.4073 (HOMO)
        16                         -0.1889825              -5.1425 (LUMO)
        17                          0.0954986               2.5986
        18                          0.1204543               3.2777
        19                          0.1398105               3.8044
        20                          0.1672272               4.5505
       ...                                ...                  ...
        30                          0.6504138              17.6987
      -------------------------------------------------------------
                  HL-Gap            0.1934798 Eh            5.2649 eV
             Fermi-level           -0.2857224 Eh           -7.7749 eV

 SCC (total)                   0 d,  0 h,  0 min,  0.010 sec
 SCC setup                      ...        0 min,  0.000 sec (  2.125%)
 Dispersion                     ...        0 min,  0.000 sec (  1.618%)
 classical contributions        ...        0 min,  0.000 sec (  0.616%)
 integral evaluation            ...        0 min,  0.001 sec (  5.249%)
 iterations                     ...        0 min,  0.008 sec ( 76.796%)
 molecular gradient             ...        0 min,  0.001 sec ( 11.841%)
 printout                       ...        0 min,  0.000 sec (  1.459%)

         :::::::::::::::::::::::::::::::::::::::::::::::::::::
         ::                     SUMMARY                     ::
         :::::::::::::::::::::::::::::::::::::::::::::::::::::
         :: total energy             -15.776327775206 Eh    ::
         :: gradient norm              0.000772455628 Eh/a0 ::
         :: HOMO-LUMO gap              5.264852076168 eV    ::
         ::.................................................::
         :: SCC energy               -16.046629904327 Eh    ::
         :: -> isotropic ES            0.003106183484 Eh    ::
         :: -> anisotropic ES          0.004945939920 Eh    ::
         :: -> anisotropic XC          0.011423239885 Eh    ::
         :: -> dispersion             -0.007244419607 Eh    ::
         :: repulsion energy           0.270302129121 Eh    ::
         :: add. restraining           0.000000000000 Eh    ::
         :: total charge               0.000000000000 e     ::
         :::::::::::::::::::::::::::::::::::::::::::::::::::::


Property printout bound to 'properties.out'

           -------------------------------------------------
          | TOTAL ENERGY              -15.776327775206 Eh   |
          | GRADIENT NORM               0.000772455628 Eh/α |
          | HOMO-LUMO GAP               5.264852076168 eV   |
           -------------------------------------------------

------------------------------------------------------------------------
 * finished run on 2026/09/11 at 13:10:19.674     
------------------------------------------------------------------------
 total:
 * wall-time:     0 d,  0 h,  0 min,  0.025 sec
 *  cpu-time:     0 d,  0 h,  0 min,  0.141 sec
 * ratio c/w:     5.647 speedup
 SCF:
 * wall-time:     0 d,  0 h,  0 min,  0.010 sec
 *  cpu-time:     0 d,  0 h,  0 min,  0.066 sec
 * ratio c/w:     6.379 speedup


-------------------------   --------------------
FINAL SINGLE POINT ENERGY       -15.776327775210
-------------------------   --------------------


-------------
DIPOLE MOMENT
-------------
                                X             Y             Z
Total Dipole Moment    :      0.01900       0.02200       0.00600
                        -----------------------------------------
Magnitude (a.u.)       :      0.02968
Magnitude (Debye)      :      0.07544


------------------
CARTESIAN GRADIENT
------------------

   1   C   :    0.000050004   -0.000326767   -0.000038558
   2   C   :    0.000166580    0.000064416   -0.000015058
   3   C   :   -0.000268977    0.000329953   -0.000181198
   4   C   :    0.000014334   -0.000097044    0.000163872
   5   C   :    0.000085280    0.000223207    0.000107566
   6   H   :    0.000068684    0.000051399    0.000055291
   7   H   :   -0.000054537    0.000028155   -0.000051570
   8   H   :   -0.000085030    0.000134349    0.000077993
   9   H   :   -0.000008232   -0.000085960   -0.000033990
  10   H   :   -0.000007310   -0.000062328    0.000022063
  11   H   :    0.000037529   -0.000109590   -0.000044234
  12   H   :   -0.000017932    0.000008403    0.000034612
  13   H   :   -0.000076137   -0.000047901   -0.000117326
  14   H   :    0.000049252   -0.000113185    0.000102263
  15   H   :    0.000046490    0.000002891   -0.000081726

Difference to translation invariance:
           :    0.0000000000    0.0000000000   -0.0000000000

Difference to rotation invariance:
           :   -0.0000000040   -0.0000000037   -0.0000000022

Norm of the Cartesian gradient     ...    0.0007724556
RMS gradient                       ...    0.0001151509
MAX gradient                       ...    0.0003299525
------------------------------------------------------------------------------
                         ORCA GEOMETRY RELAXATION STEP
------------------------------------------------------------------------------

Reading the OPT-File                    .... done
Getting information on internals        .... done
Copying old internal coords+grads       .... done
Making the new internal coordinates     .... (2022 redundants) done
Validating the new internal coordinates .... (2022 redundants) done
Calculating the B-matrix                .... done
Calculating the G,G- and P matrices     .... done
Transforming gradient to internals      .... done
Projecting the internal gradient        .... done
Number of atoms                         ....  15
Number of internal coordinates          ....  58
Current Energy                          ....   -15.776327775 Eh
Current gradient norm                   ....     0.000772456 Eh/bohr
Maximum allowed component of the step   ....  0.300
Current trust radius                    ....  0.675
Updating the Hessian (BFGS)             .... done
Forming the augmented Hessian           .... done
Diagonalizing the augmented Hessian     .... done
Last element of RFO vector              ....  0.998785390
Lowest eigenvalues of augmented Hessian:
 -0.000013180  0.002380801  0.006644961  0.013761911  0.027183364
Length of the computed step             ....  0.049332071
The final length of the internal step   ....  0.049332071
Converting the step to Cartesian space:
 Initial RMS(Int)=    0.0064776183
Transforming coordinates:
 Iter   0:  RMS(Cart)=    0.0107173777 RMS(Int)=    0.0064759873
done
Storing new coordinates                 .... done
The predicted energy change is          ....    -0.000006606
Previously predicted energy change      ....    -0.000015545
Actually observed energy change         ....    -0.000020600
Ratio of predicted to observed change   ....     1.325144050
New trust radius                        ....     0.675000000

                                .--------------------.
          ----------------------|Geometry convergence|-------------------------
          Item                value                   Tolerance       Converged
          ---------------------------------------------------------------------
          Energy change      -0.0000205997            0.0000050000      NO
          RMS gradient        0.0000837171            0.0001000000      YES
          MAX gradient        0.0002491249            0.0003000000      YES
          RMS step            0.0064776183            0.0020000000      NO
          MAX step            0.0216225318            0.0040000000      NO
          -------------------------------------------------------------------------
          ........................................................
          Max(Bonds)      0.0007      Max(Angles)    0.09
          Max(Dihed)        1.24      Max(Improp)    0.00
          ---------------------------------------------------------------------

    ---------------------------------------------------------------------------
                         Redundant Internal Coordinates
                            (Angstroem and degrees)

        Definition                    Value    dE/dq     Step     New-Value
    ----------------------------------------------------------------------------
     1. B(C   1,C   0)                1.4927 -0.000088  0.0005    1.4931   
     2. B(C   2,C   1)                1.3220  0.000132 -0.0001    1.3219   
     3. B(C   3,C   2)                1.4962 -0.000003  0.0002    1.4963   
     4. B(C   4,C   3)                1.5287 -0.000036  0.0007    1.5293   
     5. B(H   5,C   0)                1.0897  0.000007 -0.0001    1.0896   
     6. B(H   6,C   0)                1.0874  0.000067 -0.0002    1.0872   
     7. B(H   7,C   0)                1.0904  0.000109 -0.0006    1.0898   
     8. B(H   8,C   1)                1.0833  0.000032 -0.0002    1.0831   
     9. B(H   9,C   2)                1.0830 -0.000057  0.0001    1.0830   
    10. B(H  10,C   3)                1.0944  0.000080 -0.0003    1.0941   
    11. B(H  11,C   3)                1.0918  0.000015 -0.0003    1.0915   
    12. B(H  12,C   4)                1.0878  0.000065 -0.0004    1.0874   
    13. B(H  13,C   4)                1.0877  0.000043 -0.0003    1.0874   
    14. B(H  14,C   4)                1.0880  0.000049 -0.0003    1.0877   
    15. A(H   6,C   0,H   7)          108.72 -0.000030    0.09    108.81   
    16. A(C   1,C   0,H   5)          110.43  0.000180   -0.08    110.34   
    17. A(C   1,C   0,H   6)          110.99 -0.000100   -0.03    110.96   
    18. A(C   1,C   0,H   7)          110.15 -0.000106    0.06    110.21   
    19. A(H   5,C   0,H   6)          108.89  0.000012   -0.07    108.83   
    20. A(H   5,C   0,H   7)          107.58  0.000048    0.04    107.61   
    21. A(C   2,C   1,H   8)          119.80 -0.000066    0.04    119.84   
    22. A(C   0,C   1,H   8)          115.35  0.000006    0.01    115.37   
    23. A(C   0,C   1,C   2)          124.85  0.000060   -0.05    124.79   
    24. A(C   3,C   2,H   9)          115.25  0.000047    0.02    115.27   
    25. A(C   1,C   2,H   9)          119.91  0.000093   -0.04    119.88   
    26. A(C   1,C   2,C   3)          124.83 -0.000140    0.01    124.85   
    27. A(C   4,C   3,H  10)          108.95  0.000148   -0.06    108.89   
    28. A(C   2,C   3,H  10)          109.15 -0.000027   -0.02    109.13   
    29. A(C   2,C   3,C   4)          111.08 -0.000249    0.02    111.11   
    30. A(H  10,C   3,H  11)          108.03 -0.000041    0.02    108.05   
    31. A(C   4,C   3,H  11)          109.69  0.000014    0.05    109.74   
    32. A(C   2,C   3,H  11)          109.88  0.000161   -0.01    109.86   
    33. A(H  13,C   4,H  14)          108.44  0.000071    0.03    108.46   
    34. A(H  12,C   4,H  14)          108.47  0.000075   -0.00    108.47   
    35. A(C   3,C   4,H  14)          110.45 -0.000090   -0.06    110.39   
    36. A(H  12,C   4,H  13)          108.62  0.000066    0.03    108.65   
    37. A(C   3,C   4,H  13)          110.24 -0.000120   -0.00    110.24   
    38. A(C   3,C   4,H  12)          110.56  0.000004    0.01    110.58   
    39. D(C   2,C   1,C   0,H   5)   -123.02 -0.000080    1.24   -121.78   
    40. D(C   2,C   1,C   0,H   6)     -2.16 -0.000011    1.08     -1.08   
    41. D(H   8,C   1,C   0,H   6)    177.81 -0.000018    0.98    178.79   
    42. D(C   2,C   1,C   0,H   7)    118.30 -0.000185    1.21    119.51   
    43. D(H   8,C   1,C   0,H   5)     56.95 -0.000087    1.14     58.08   
    44. D(C   3,C   2,C   1,C   0)   -179.27  0.000014   -0.12   -179.39   
    45. D(C   3,C   2,C   1,H   8)      0.76  0.000021   -0.01      0.75   
    46. D(H   9,C   2,C   1,H   8)    179.85  0.000019   -0.02    179.83   
    47. D(H   9,C   2,C   1,C   0)     -0.19  0.000012   -0.13     -0.32   
    48. D(H  11,C   3,C   2,C   1)     -2.60  0.000025    0.04     -2.55   
    49. D(H  10,C   3,C   2,H   9)     60.00 -0.000002    0.04     60.04   
    50. D(H  10,C   3,C   2,C   1)   -120.88 -0.000003    0.03   -120.85   
    51. D(C   4,C   3,C   2,H   9)    -60.15 -0.000012    0.12    -60.04   
    52. D(C   4,C   3,C   2,C   1)    118.97 -0.000014    0.11    119.07   
    53. D(H  12,C   4,C   3,C   2)    177.85 -0.000132    0.44    178.29   
    54. D(H  13,C   4,C   3,H  11)     59.64 -0.000077    0.51     60.15   
    55. D(H  13,C   4,C   3,H  10)    177.70 -0.000032    0.53    178.23   
    56. D(H  13,C   4,C   3,C   2)    -62.04 -0.000125    0.48    -61.55   
    57. D(H  12,C   4,C   3,H  11)    -60.48 -0.000084    0.47    -60.01   
    58. D(H  12,C   4,C   3,H  10)     57.58 -0.000039    0.49     58.07   
    ----------------------------------------------------------------------------

Geometry step timings:
Preparation and reading OPT file:      0.000 s ( 1.239 %)
Internal coordinates            :      0.000 s ( 1.534 %)
B/P matrices and projection     :      0.000 s (24.425 %)
Hessian update/contruction      :      0.000 s (15.988 %)
Making the step                 :      0.000 s (25.192 %)
Converting the step to Cartesian:      0.000 s ( 2.596 %)
Storing new data                :      0.000 s ( 1.711 %)
Checking convergence            :      0.000 s ( 2.655 %)
Final printing                  :      0.000 s (24.661 %)
Total time                      :      0.002 s

Time for energy+gradient        :      0.036 s
Time for complete geometry iter :      0.038 s

         *************************************************************
         *                GEOMETRY OPTIMIZATION CYCLE   9            *
         *************************************************************
---------------------------------
CARTESIAN COORDINATES (ANGSTROEM)
---------------------------------
  C     2.465156    0.642498   -0.190408
  C     1.253821   -0.159618    0.154148
  C     0.076447   -0.038615   -0.434587
  C    -1.141653   -0.832724   -0.081501
  C    -2.275758    0.078639    0.389753
  H     3.283418   -0.014301   -0.484270
  H     2.256997    1.330315   -1.006279
  H     2.796565    1.214842    0.675753
  H     1.387753   -0.884866    0.947338
  H    -0.058935    0.688373   -1.225868
  H    -1.476075   -1.387296   -0.963376
  H    -0.899879   -1.554768    0.700507
  H    -3.165742   -0.504115    0.615200
  H    -1.977235    0.618098    1.285511
  H    -2.524880    0.803538   -0.381920

----------------------------
CARTESIAN COORDINATES (A.U.)
----------------------------
  NO LB    ZA    FRAG    MASS        X           Y           Z
   0 C   6.0000    1    12.011    4.658470    1.214146   -0.359819
   1 C   6.0000    1    12.011    2.369377   -0.301635    0.291297
   2 C   6.0000    1    12.011    0.144463   -0.072973   -0.821249
   3 C   6.0000    1    12.011   -2.157412   -1.573620   -0.154015
   4 C   6.0000    1    12.011   -4.300559    0.148605    0.736526
   5 H   1.0000    1     1.008    6.204761   -0.027025   -0.915137
   6 H   1.0000    1     1.008    4.265106    2.513932   -1.901592
   7 H   1.0000    1     1.008    5.284741    2.295718    1.276989
   8 H   1.0000    1     1.008    2.622474   -1.672154    1.790208
   9 H   1.0000    1     1.008   -0.111370    1.300836   -2.316555
  10 H   1.0000    1     1.008   -2.789377   -2.621609   -1.820517
  11 H   1.0000    1     1.008   -1.700525   -2.938087    1.323767
  12 H   1.0000    1     1.008   -5.982386   -0.952639    1.162559
  13 H   1.0000    1     1.008   -3.736432    1.168036    2.429264
  14 H   1.0000    1     1.008   -4.771331    1.518466   -0.721725

      -----------------------------------------------------------      
     |                   =====================                   |     
     |                           x T B                           |     
     |                   =====================                   |     
     |                         S. Grimme                         |     
     |          Mulliken Center for Theoretical Chemistry        |     
     |                    University of Bonn                     |     
      -----------------------------------------------------------      

   * xtb version 6.7.1 (edcfbbe) compiled by 'albert@albert-system' on 2024-07-22

   xtb is free software: you can redistribute it and/or modify it under
   the terms of the GNU Lesser General Public License as published by
   the Free Software Foundation, either version 3 of the License, or
   (at your option) any later version.
   
   xtb is distributed in the hope that it will be useful,
   but WITHOUT ANY WARRANTY; without even the implied warranty of
   MERCHANTABILITY or FITNESS FOR A PARTICULAR PURPOSE.  See the
   GNU Lesser General Public License for more details.
   
   Cite this work as:
   * C. Bannwarth, E. Caldeweyher, S. Ehlert, A. Hansen, P. Pracht,
     J. Seibert, S. Spicher, S. Grimme, WIREs Comput. Mol. Sci., 2020, 11,
     e01493. DOI: 10.1002/wcms.1493
   
   for GFN2-xTB:
   * C. Bannwarth, S. Ehlert and S. Grimme., J. Chem. Theory Comput., 2019,
     15, 1652-1671. DOI: 10.1021/acs.jctc.8b01176
   for GFN1-xTB:
   * S. Grimme, C. Bannwarth, P. Shushkov, J. Chem. Theory Comput., 2017,
     13, 1989-2009. DOI: 10.1021/acs.jctc.7b00118
   for GFN0-xTB:
   * P. Pracht, E. Caldeweyher, S. Ehlert, S. Grimme, ChemRxiv, 2019, preprint.
     DOI: 10.26434/chemrxiv.8326202.v1
   for GFN-FF:
   * S. Spicher and S. Grimme, Angew. Chem. Int. Ed., 2020, 59, 15665-15673.
     DOI: 10.1002/anie.202004239
   
   for ALPB and GBSA implicit solvation:
   * S. Ehlert, M. Stahn, S. Spicher, S. Grimme, J. Chem. Theory Comput.,
     2021, 17, 4250-4261. DOI: 10.1021/acs.jctc.1c00471
   
   for ddCOSMO and CPCM-X implicit solvation:
   * M. Stahn, S. Ehlert, S. Grimme, J. Phys. Chem. A,
     2023, XX, XXXX-XXXX. DOI: 10.1021/acs.jpca.3c04382
   
   for DFT-D4:
   * E. Caldeweyher, C. Bannwarth and S. Grimme, J. Chem. Phys., 2017,
     147, 034112. DOI: 10.1063/1.4993215
   * E. Caldeweyher, S. Ehlert, A. Hansen, H. Neugebauer, S. Spicher,
     C. Bannwarth and S. Grimme, J. Chem. Phys., 2019, 150, 154122.
     DOI: 10.1063/1.5090222
   * E. Caldeweyher, J.-M. Mewes, S. Ehlert and S. Grimme, Phys. Chem. Chem. Phys.
     2020, 22, 8499-8512. DOI: 10.1039/D0CP00502A
   
   for sTDA-xTB:
   * S. Grimme and C. Bannwarth, J. Chem. Phys., 2016, 145, 054103.
     DOI: 10.1063/1.4959605
   
   in the mass-spec context:
   * V. Asgeirsson, C. Bauer and S. Grimme, Chem. Sci., 2017, 8, 4879.
     DOI: 10.1039/c7sc00601b
   * J. Koopman and S. Grimme, ACS Omega 2019, 4, 12, 15120-15133.
     DOI: 10.1021/acsomega.9b02011
   
   for metadynamics refer to:
   * S. Grimme, J. Chem. Theory Comput., 2019, 155, 2847-2862
     DOI: 10.1021/acs.jctc.9b00143
   
   for SPH calculations refer to:
   * S. Spicher and S. Grimme, J. Chem. Theory Comput., 2021, 17, 1701-1714
     DOI: 10.1021/acs.jctc.0c01306
   
   for ONIOM refer to:
   * C. Plett, A. Katbashev, S. Ehlert, S. Grimme, M. Bursch,
     Phys. Chem. Chem. Phys., 2023, 25, 17860-17868. DOI: 10.1039/D3CP02178E
   
   for DIPRO refer to:
   * J. Kohn, N. Gildemeister, S. Grimme, D. Fazzi, A. Hansen,
     J. Chem. Phys., 2023, just accepted.
   
   for PTB refer to:
   * S. Grimme, M. Mueller, A. Hansen, J. Chem. Phys., 2023, 158, 124111.
     DOI: 10.1063/5.0137838
   
   with help from (in alphabetical order)
   P. Atkinson, C. Bannwarth, F. Bohle, G. Brandenburg, E. Caldeweyher
   M. Checinski, S. Dohm, S. Ehlert, S. Ehrlich, I. Gerasimov, C. Hölzer
   A. Katbashev, J. Kohn, J. Koopman, C. Lavigne, S. Lehtola, F. März, M. Müller,
   F. Musil, H. Neugebauer, J. Pisarek, C. Plett, P. Pracht, F. Pultar,
   J. Seibert, P. Shushkov, S. Spicher, M. Stahn, M. Steiner, T. Strunk,
   J. Stückrath, T. Rose, and J. Unsleber
   
 * started run on 2026/09/11 at 13:10:19.686     
   ID    Z sym.   atoms
    1    6 C      1-5
    2    1 H      6-15

           -------------------------------------------------
          |                Calculation Setup                |
           -------------------------------------------------

          program call               : /apps/eb/ORCA/6.1.1-gompi-2023b-avx2/bin/otool_xtb goat_XTB.xyz --grad -c 0 -u 0 -P 8 --namespace goat --input goat_XTB.input.tmp --acc 0.200000
          hostname                   : a2-7
          calculation namespace      : goat
          coordinate file            : goat_XTB.xyz
          omp threads                :                     8


           -------------------------------------------------
          |                 G F N 2 - x T B                 |
           -------------------------------------------------

        Reference                      10.1021/acs.jctc.8b01176
      * Hamiltonian:
        H0-scaling (s, p, d)           1.850000    2.230000    2.230000
        zeta-weighting                 0.500000
      * Dispersion:
        s8                             2.700000
        a1                             0.520000
        a2                             5.000000
        s9                             5.000000
      * Repulsion:
        kExp                           1.500000    1.000000
        rExp                           1.000000
      * Coulomb:
        alpha                          2.000000
        third order                    shell-resolved
        anisotropic                    true
        a3                             3.000000
        a5                             4.000000
        cn-shift                       1.200000
        cn-exp                         4.000000
        max-rad                        5.000000

q/qsh data taken from xtbrestart
CAMM data taken from xtbrestart

          ...................................................
          :                      SETUP                      :
          :.................................................:
          :  # basis functions                  30          :
          :  # atomic orbitals                  30          :
          :  # shells                           20          :
          :  # electrons                        30          :
          :  max. iterations                   250          :
          :  Hamiltonian                  GFN2-xTB          :
          :  restarted?                       true          :
          :  GBSA solvation                  false          :
          :  PC potential                    false          :
          :  electronic temp.          300.0000000     K    :
          :  accuracy                    0.2000000          :
          :  -> integral cutoff          0.3198970E+02      :
          :  -> integral neglect         0.2000000E-08      :
          :  -> SCF convergence          0.2000000E-06 Eh   :
          :  -> wf. convergence          0.2000000E-04 e    :
          :  Broyden damping             0.4000000          :
          :  net charge                          0          :
          :  unpaired electrons                  0          :
          ...................................................

 iter      E             dE          RMSdq      gap      omega  full diag
   1    -16.0468900 -0.160469E+02  0.200E-02    5.27       0.0  T
   2    -16.0468901 -0.297617E-07  0.120E-02    5.27       2.2  T
   3    -16.0468901  0.150695E-07  0.133E-03    5.27      19.4  T
   4    -16.0468901 -0.175774E-07  0.590E-04    5.27      43.7  T
   5    -16.0468901 -0.369825E-08  0.170E-04    5.27     152.3  T
   6    -16.0468901 -0.264073E-10  0.453E-05    5.27     570.1  T

   *** convergence criteria satisfied after 6 iterations ***

         #    Occupation            Energy/Eh            Energy/eV
      -------------------------------------------------------------
         1        2.0000           -0.6189823             -16.8434
       ...           ...                  ...                  ...
         9        2.0000           -0.4763085             -12.9610
        10        2.0000           -0.4657815             -12.6746
        11        2.0000           -0.4565234             -12.4226
        12        2.0000           -0.4379579             -11.9174
        13        2.0000           -0.4275235             -11.6335
        14        2.0000           -0.4219578             -11.4821
        15        2.0000           -0.3824895             -10.4081 (HOMO)
        16                         -0.1889511              -5.1416 (LUMO)
        17                          0.0952044               2.5906
        18                          0.1206825               3.2839
        19                          0.1394500               3.7946
        20                          0.1675582               4.5595
       ...                                ...                  ...
        30                          0.6505752              17.7031
      -------------------------------------------------------------
                  HL-Gap            0.1935384 Eh            5.2664 eV
             Fermi-level           -0.2857203 Eh           -7.7748 eV

 SCC (total)                   0 d,  0 h,  0 min,  0.016 sec
 SCC setup                      ...        0 min,  0.000 sec (  2.760%)
 Dispersion                     ...        0 min,  0.000 sec (  1.769%)
 classical contributions        ...        0 min,  0.000 sec (  0.783%)
 integral evaluation            ...        0 min,  0.001 sec (  5.098%)
 iterations                     ...        0 min,  0.011 sec ( 71.493%)
 molecular gradient             ...        0 min,  0.003 sec ( 16.435%)
 printout                       ...        0 min,  0.000 sec (  1.474%)

         :::::::::::::::::::::::::::::::::::::::::::::::::::::
         ::                     SUMMARY                     ::
         :::::::::::::::::::::::::::::::::::::::::::::::::::::
         :: total energy             -15.776337074088 Eh    ::
         :: gradient norm              0.001108813259 Eh/a0 ::
         :: HOMO-LUMO gap              5.266446673406 eV    ::
         ::.................................................::
         :: SCC energy               -16.046885702327 Eh    ::
         :: -> isotropic ES            0.003113252118 Eh    ::
         :: -> anisotropic ES          0.004939504883 Eh    ::
         :: -> anisotropic XC          0.011417381278 Eh    ::
         :: -> dispersion             -0.007243252569 Eh    ::
         :: repulsion energy           0.270548628239 Eh    ::
         :: add. restraining           0.000000000000 Eh    ::
         :: total charge               0.000000000000 e     ::
         :::::::::::::::::::::::::::::::::::::::::::::::::::::


Property printout bound to 'properties.out'

           -------------------------------------------------
          | TOTAL ENERGY              -15.776337074088 Eh   |
          | GRADIENT NORM               0.001108813259 Eh/α |
          | HOMO-LUMO GAP               5.266446673406 eV   |
           -------------------------------------------------

------------------------------------------------------------------------
 * finished run on 2026/09/11 at 13:10:19.719     
------------------------------------------------------------------------
 total:
 * wall-time:     0 d,  0 h,  0 min,  0.032 sec
 *  cpu-time:     0 d,  0 h,  0 min,  0.124 sec
 * ratio c/w:     3.809 speedup
 SCF:
 * wall-time:     0 d,  0 h,  0 min,  0.016 sec
 *  cpu-time:     0 d,  0 h,  0 min,  0.064 sec
 * ratio c/w:     3.957 speedup


-------------------------   --------------------
FINAL SINGLE POINT ENERGY       -15.776337074090
-------------------------   --------------------


-------------
DIPOLE MOMENT
-------------
                                X             Y             Z
Total Dipole Moment    :      0.01900       0.02100       0.00400
                        -----------------------------------------
Magnitude (a.u.)       :      0.02860
Magnitude (Debye)      :      0.07270


------------------
CARTESIAN GRADIENT
------------------

   1   C   :    0.000359433    0.000100785    0.000112520
   2   C   :   -0.000068045   -0.000167741    0.000057993
   3   C   :   -0.000048764    0.000275931   -0.000190894
   4   C   :    0.000156551   -0.000452126    0.000145606
   5   C   :   -0.000395685    0.000448827    0.000313067
   6   H   :   -0.000103317    0.000109673    0.000010212
   7   H   :   -0.000033248   -0.000102082   -0.000007274
   8   H   :   -0.000129825   -0.000049924   -0.000125180
   9   H   :   -0.000024698    0.000000675   -0.000063625
  10   H   :    0.000044501   -0.000019065    0.000010725
  11   H   :    0.000068081    0.000047922    0.000061516
  12   H   :   -0.000008464    0.000064105   -0.000102433
  13   H   :    0.000070902    0.000102835   -0.000157722
  14   H   :    0.000023486   -0.000177770   -0.000067746
  15   H   :    0.000089093   -0.000182044    0.000003235

Difference to translation invariance:
           :    0.0000000000   -0.0000000000   -0.0000000000

Difference to rotation invariance:
           :    0.0000000180   -0.0000000221   -0.0000000058

Norm of the Cartesian gradient     ...    0.0011088133
RMS gradient                       ...    0.0001652921
MAX gradient                       ...    0.0004521260
------------------------------------------------------------------------------
                         ORCA GEOMETRY RELAXATION STEP
------------------------------------------------------------------------------

Reading the OPT-File                    .... done
Getting information on internals        .... done
Copying old internal coords+grads       .... done
Making the new internal coordinates     .... (2022 redundants) done
Validating the new internal coordinates .... (2022 redundants) done
Calculating the B-matrix                .... done
Calculating the G,G- and P matrices     .... done
Transforming gradient to internals      .... done
Projecting the internal gradient        .... done
Number of atoms                         ....  15
Number of internal coordinates          ....  58
Current Energy                          ....   -15.776337074 Eh
Current gradient norm                   ....     0.001108813 Eh/bohr
Maximum allowed component of the step   ....  0.300
Current trust radius                    ....  0.675
Updating the Hessian (BFGS)             .... done
Forming the augmented Hessian           .... done
Diagonalizing the augmented Hessian     .... done
Last element of RFO vector              ....  0.998848234
Lowest eigenvalues of augmented Hessian:
 -0.000008367  0.002074680  0.004023662  0.013762153  0.027145001
Length of the computed step             ....  0.048036628
The final length of the internal step   ....  0.048036628
Converting the step to Cartesian space:
 Initial RMS(Int)=    0.0063075183
Transforming coordinates:
 Iter   0:  RMS(Cart)=    0.0103534365 RMS(Int)=    0.0063069178
done
Storing new coordinates                 .... done
The predicted energy change is          ....    -0.000004193
Previously predicted energy change      ....    -0.000006606
Actually observed energy change         ....    -0.000009299
Ratio of predicted to observed change   ....     1.407632416
New trust radius                        ....     0.675000000

                                .--------------------.
          ----------------------|Geometry convergence|-------------------------
          Item                value                   Tolerance       Converged
          ---------------------------------------------------------------------
          Energy change      -0.0000092989            0.0000050000      NO
          RMS gradient        0.0000907153            0.0001000000      YES
          MAX gradient        0.0002996804            0.0003000000      YES
          RMS step            0.0063075183            0.0020000000      NO
          MAX step            0.0192924442            0.0040000000      NO
          -------------------------------------------------------------------------
          ........................................................
          Max(Bonds)      0.0002      Max(Angles)    0.07
          Max(Dihed)        1.11      Max(Improp)    0.00
          ---------------------------------------------------------------------

    ---------------------------------------------------------------------------
                         Redundant Internal Coordinates
                            (Angstroem and degrees)

        Definition                    Value    dE/dq     Step     New-Value
    ----------------------------------------------------------------------------
     1. B(C   1,C   0)                1.4931  0.000109  0.0001    1.4932   
     2. B(C   2,C   1)                1.3219  0.000003 -0.0001    1.3218   
     3. B(C   3,C   2)                1.4963  0.000122 -0.0001    1.4963   
     4. B(C   4,C   3)                1.5293  0.000300 -0.0001    1.5293   
     5. B(H   5,C   0)                1.0896 -0.000146  0.0001    1.0898   
     6. B(H   6,C   0)                1.0872 -0.000053 -0.0001    1.0871   
     7. B(H   7,C   0)                1.0898 -0.000165 -0.0002    1.0896   
     8. B(H   8,C   1)                1.0831 -0.000050 -0.0000    1.0831   
     9. B(H   9,C   2)                1.0830 -0.000026  0.0001    1.0831   
    10. B(H  10,C   3)                1.0941 -0.000095 -0.0001    1.0941   
    11. B(H  11,C   3)                1.0915 -0.000118  0.0000    1.0915   
    12. B(H  12,C   4)                1.0874 -0.000146 -0.0000    1.0874   
    13. B(H  13,C   4)                1.0874 -0.000138  0.0000    1.0874   
    14. B(H  14,C   4)                1.0877 -0.000144  0.0000    1.0877   
    15. A(H   6,C   0,H   7)          108.81  0.000036    0.05    108.86   
    16. A(C   1,C   0,H   5)          110.34  0.000081   -0.07    110.27   
    17. A(C   1,C   0,H   6)          110.96 -0.000122    0.02    110.98   
    18. A(C   1,C   0,H   7)          110.21 -0.000048    0.04    110.25   
    19. A(H   5,C   0,H   6)          108.83 -0.000011   -0.03    108.80   
    20. A(H   5,C   0,H   7)          107.61  0.000069   -0.02    107.59   
    21. A(C   2,C   1,H   8)          119.84  0.000005    0.02    119.86   
    22. A(C   0,C   1,H   8)          115.37  0.000065   -0.01    115.36   
    23. A(C   0,C   1,C   2)          124.79 -0.000070   -0.01    124.78   
    24. A(C   3,C   2,H   9)          115.27  0.000084   -0.01    115.26   
    25. A(C   1,C   2,H   9)          119.88  0.000006   -0.02    119.86   
    26. A(C   1,C   2,C   3)          124.85 -0.000091    0.03    124.87   
    27. A(C   4,C   3,H  10)          108.89  0.000063   -0.04    108.85   
    28. A(C   2,C   3,H  10)          109.12 -0.000057    0.02    109.15   
    29. A(C   2,C   3,C   4)          111.11 -0.000135    0.05    111.16   
    30. A(H  10,C   3,H  11)          108.05 -0.000025    0.01    108.06   
    31. A(C   4,C   3,H  11)          109.74  0.000070   -0.00    109.73   
    32. A(C   2,C   3,H  11)          109.87  0.000086   -0.04    109.82   
    33. A(H  13,C   4,H  14)          108.46  0.000151   -0.02    108.44   
    34. A(H  12,C   4,H  14)          108.47  0.000019   -0.00    108.47   
    35. A(C   3,C   4,H  14)          110.39 -0.000183    0.02    110.41   
    36. A(H  12,C   4,H  13)          108.65  0.000059   -0.02    108.63   
    37. A(C   3,C   4,H  13)          110.24 -0.000104    0.03    110.26   
    38. A(C   3,C   4,H  12)          110.58  0.000065   -0.01    110.57   
    39. D(C   2,C   1,C   0,H   5)   -121.78 -0.000008    1.07   -120.71   
    40. D(C   2,C   1,C   0,H   6)     -1.08 -0.000047    1.00     -0.08   
    41. D(H   8,C   1,C   0,H   6)    178.79 -0.000044    0.89    179.68   
    42. D(C   2,C   1,C   0,H   7)    119.51 -0.000113    1.11    120.62   
    43. D(H   8,C   1,C   0,H   5)     58.08 -0.000005    0.96     59.04   
    44. D(C   3,C   2,C   1,C   0)   -179.39  0.000006   -0.11   -179.50   
    45. D(C   3,C   2,C   1,H   8)      0.75  0.000003    0.01      0.76   
    46. D(H   9,C   2,C   1,H   8)    179.82  0.000014   -0.01    179.81   
    47. D(H   9,C   2,C   1,C   0)     -0.32  0.000017   -0.13     -0.44   
    48. D(H  11,C   3,C   2,C   1)     -2.55 -0.000026    0.05     -2.51   
    49. D(H  10,C   3,C   2,H   9)     60.04 -0.000022    0.07     60.11   
    50. D(H  10,C   3,C   2,C   1)   -120.85 -0.000012    0.05   -120.80   
    51. D(C   4,C   3,C   2,H   9)    -60.04  0.000022    0.07    -59.97   
    52. D(C   4,C   3,C   2,C   1)    119.07  0.000031    0.05    119.12   
    53. D(H  12,C   4,C   3,C   2)    178.29 -0.000138    0.66    178.94   
    54. D(H  13,C   4,C   3,H  11)     60.15 -0.000024    0.63     60.78   
    55. D(H  13,C   4,C   3,H  10)    178.23  0.000024    0.62    178.85   
    56. D(H  13,C   4,C   3,C   2)    -61.55 -0.000090    0.65    -60.90   
    57. D(H  12,C   4,C   3,H  11)    -60.01 -0.000072    0.64    -59.37   
    58. D(H  12,C   4,C   3,H  10)     58.07 -0.000024    0.62     58.69   
    ----------------------------------------------------------------------------

Geometry step timings:
Preparation and reading OPT file:      0.000 s ( 1.121 %)
Internal coordinates            :      0.000 s ( 1.457 %)
B/P matrices and projection     :      0.000 s (22.870 %)
Hessian update/contruction      :      0.000 s (25.673 %)
Making the step                 :      0.000 s (19.507 %)
Converting the step to Cartesian:      0.000 s ( 2.410 %)
Storing new data                :      0.000 s ( 1.682 %)
Checking convergence            :      0.000 s ( 2.466 %)
Final printing                  :      0.000 s (22.758 %)
Total time                      :      0.002 s

Time for energy+gradient        :      0.044 s
Time for complete geometry iter :      0.046 s

         *************************************************************
         *                GEOMETRY OPTIMIZATION CYCLE  10            *
         *************************************************************
---------------------------------
CARTESIAN COORDINATES (ANGSTROEM)
---------------------------------
  C     2.465725    0.642617   -0.189386
  C     1.253934   -0.158387    0.156501
  C     0.077077   -0.038303   -0.433283
  C    -1.141320   -0.832256   -0.081170
  C    -2.277219    0.078230    0.387198
  H     3.277429   -0.015240   -0.499153
  H     2.253814    1.340956   -0.995177
  H     2.808925    1.202124    0.680369
  H     1.387921   -0.882970    0.950255
  H    -0.057670    0.688468   -1.224994
  H    -1.474442   -1.388179   -0.962617
  H    -0.899874   -1.553032    0.702176
  H    -3.163217   -0.506568    0.622713
  H    -1.977158    0.627738    1.276320
  H    -2.533925    0.794803   -0.389753

----------------------------
CARTESIAN COORDINATES (A.U.)
----------------------------
  NO LB    ZA    FRAG    MASS        X           Y           Z
   0 C   6.0000    1    12.011    4.659545    1.214370   -0.357887
   1 C   6.0000    1    12.011    2.369593   -0.299309    0.295745
   2 C   6.0000    1    12.011    0.145655   -0.072383   -0.818785
   3 C   6.0000    1    12.011   -2.156783   -1.572736   -0.153388
   4 C   6.0000    1    12.011   -4.303320    0.147833    0.731699
   5 H   1.0000    1     1.008    6.193443   -0.028799   -0.943262
   6 H   1.0000    1     1.008    4.259090    2.534039   -1.880612
   7 H   1.0000    1     1.008    5.308099    2.271685    1.285710
   8 H   1.0000    1     1.008    2.622791   -1.668572    1.795721
   9 H   1.0000    1     1.008   -0.108981    1.301017   -2.314904
  10 H   1.0000    1     1.008   -2.786291   -2.623279   -1.819082
  11 H   1.0000    1     1.008   -1.700515   -2.934805    1.326921
  12 H   1.0000    1     1.008   -5.977613   -0.957274    1.176756
  13 H   1.0000    1     1.008   -3.736288    1.186252    2.411896
  14 H   1.0000    1     1.008   -4.788424    1.501959   -0.736527

      -----------------------------------------------------------      
     |                   =====================                   |     
     |                           x T B                           |     
     |                   =====================                   |     
     |                         S. Grimme                         |     
     |          Mulliken Center for Theoretical Chemistry        |     
     |                    University of Bonn                     |     
      -----------------------------------------------------------      

   * xtb version 6.7.1 (edcfbbe) compiled by 'albert@albert-system' on 2024-07-22

   xtb is free software: you can redistribute it and/or modify it under
   the terms of the GNU Lesser General Public License as published by
   the Free Software Foundation, either version 3 of the License, or
   (at your option) any later version.
   
   xtb is distributed in the hope that it will be useful,
   but WITHOUT ANY WARRANTY; without even the implied warranty of
   MERCHANTABILITY or FITNESS FOR A PARTICULAR PURPOSE.  See the
   GNU Lesser General Public License for more details.
   
   Cite this work as:
   * C. Bannwarth, E. Caldeweyher, S. Ehlert, A. Hansen, P. Pracht,
     J. Seibert, S. Spicher, S. Grimme, WIREs Comput. Mol. Sci., 2020, 11,
     e01493. DOI: 10.1002/wcms.1493
   
   for GFN2-xTB:
   * C. Bannwarth, S. Ehlert and S. Grimme., J. Chem. Theory Comput., 2019,
     15, 1652-1671. DOI: 10.1021/acs.jctc.8b01176
   for GFN1-xTB:
   * S. Grimme, C. Bannwarth, P. Shushkov, J. Chem. Theory Comput., 2017,
     13, 1989-2009. DOI: 10.1021/acs.jctc.7b00118
   for GFN0-xTB:
   * P. Pracht, E. Caldeweyher, S. Ehlert, S. Grimme, ChemRxiv, 2019, preprint.
     DOI: 10.26434/chemrxiv.8326202.v1
   for GFN-FF:
   * S. Spicher and S. Grimme, Angew. Chem. Int. Ed., 2020, 59, 15665-15673.
     DOI: 10.1002/anie.202004239
   
   for ALPB and GBSA implicit solvation:
   * S. Ehlert, M. Stahn, S. Spicher, S. Grimme, J. Chem. Theory Comput.,
     2021, 17, 4250-4261. DOI: 10.1021/acs.jctc.1c00471
   
   for ddCOSMO and CPCM-X implicit solvation:
   * M. Stahn, S. Ehlert, S. Grimme, J. Phys. Chem. A,
     2023, XX, XXXX-XXXX. DOI: 10.1021/acs.jpca.3c04382
   
   for DFT-D4:
   * E. Caldeweyher, C. Bannwarth and S. Grimme, J. Chem. Phys., 2017,
     147, 034112. DOI: 10.1063/1.4993215
   * E. Caldeweyher, S. Ehlert, A. Hansen, H. Neugebauer, S. Spicher,
     C. Bannwarth and S. Grimme, J. Chem. Phys., 2019, 150, 154122.
     DOI: 10.1063/1.5090222
   * E. Caldeweyher, J.-M. Mewes, S. Ehlert and S. Grimme, Phys. Chem. Chem. Phys.
     2020, 22, 8499-8512. DOI: 10.1039/D0CP00502A
   
   for sTDA-xTB:
   * S. Grimme and C. Bannwarth, J. Chem. Phys., 2016, 145, 054103.
     DOI: 10.1063/1.4959605
   
   in the mass-spec context:
   * V. Asgeirsson, C. Bauer and S. Grimme, Chem. Sci., 2017, 8, 4879.
     DOI: 10.1039/c7sc00601b
   * J. Koopman and S. Grimme, ACS Omega 2019, 4, 12, 15120-15133.
     DOI: 10.1021/acsomega.9b02011
   
   for metadynamics refer to:
   * S. Grimme, J. Chem. Theory Comput., 2019, 155, 2847-2862
     DOI: 10.1021/acs.jctc.9b00143
   
   for SPH calculations refer to:
   * S. Spicher and S. Grimme, J. Chem. Theory Comput., 2021, 17, 1701-1714
     DOI: 10.1021/acs.jctc.0c01306
   
   for ONIOM refer to:
   * C. Plett, A. Katbashev, S. Ehlert, S. Grimme, M. Bursch,
     Phys. Chem. Chem. Phys., 2023, 25, 17860-17868. DOI: 10.1039/D3CP02178E
   
   for DIPRO refer to:
   * J. Kohn, N. Gildemeister, S. Grimme, D. Fazzi, A. Hansen,
     J. Chem. Phys., 2023, just accepted.
   
   for PTB refer to:
   * S. Grimme, M. Mueller, A. Hansen, J. Chem. Phys., 2023, 158, 124111.
     DOI: 10.1063/5.0137838
   
   with help from (in alphabetical order)
   P. Atkinson, C. Bannwarth, F. Bohle, G. Brandenburg, E. Caldeweyher
   M. Checinski, S. Dohm, S. Ehlert, S. Ehrlich, I. Gerasimov, C. Hölzer
   A. Katbashev, J. Kohn, J. Koopman, C. Lavigne, S. Lehtola, F. März, M. Müller,
   F. Musil, H. Neugebauer, J. Pisarek, C. Plett, P. Pracht, F. Pultar,
   J. Seibert, P. Shushkov, S. Spicher, M. Stahn, M. Steiner, T. Strunk,
   J. Stückrath, T. Rose, and J. Unsleber
   
 * started run on 2026/09/11 at 13:10:19.732     
   ID    Z sym.   atoms
    1    6 C      1-5
    2    1 H      6-15

           -------------------------------------------------
          |                Calculation Setup                |
           -------------------------------------------------

          program call               : /apps/eb/ORCA/6.1.1-gompi-2023b-avx2/bin/otool_xtb goat_XTB.xyz --grad -c 0 -u 0 -P 8 --namespace goat --input goat_XTB.input.tmp --acc 0.200000
          hostname                   : a2-7
          calculation namespace      : goat
          coordinate file            : goat_XTB.xyz
          omp threads                :                     8


           -------------------------------------------------
          |                 G F N 2 - x T B                 |
           -------------------------------------------------

        Reference                      10.1021/acs.jctc.8b01176
      * Hamiltonian:
        H0-scaling (s, p, d)           1.850000    2.230000    2.230000
        zeta-weighting                 0.500000
      * Dispersion:
        s8                             2.700000
        a1                             0.520000
        a2                             5.000000
        s9                             5.000000
      * Repulsion:
        kExp                           1.500000    1.000000
        rExp                           1.000000
      * Coulomb:
        alpha                          2.000000
        third order                    shell-resolved
        anisotropic                    true
        a3                             3.000000
        a5                             4.000000
        cn-shift                       1.200000
        cn-exp                         4.000000
        max-rad                        5.000000

q/qsh data taken from xtbrestart
CAMM data taken from xtbrestart

          ...................................................
          :                      SETUP                      :
          :.................................................:
          :  # basis functions                  30          :
          :  # atomic orbitals                  30          :
          :  # shells                           20          :
          :  # electrons                        30          :
          :  max. iterations                   250          :
          :  Hamiltonian                  GFN2-xTB          :
          :  restarted?                       true          :
          :  GBSA solvation                  false          :
          :  PC potential                    false          :
          :  electronic temp.          300.0000000     K    :
          :  accuracy                    0.2000000          :
          :  -> integral cutoff          0.3198970E+02      :
          :  -> integral neglect         0.2000000E-08      :
          :  -> SCF convergence          0.2000000E-06 Eh   :
          :  -> wf. convergence          0.2000000E-04 e    :
          :  Broyden damping             0.4000000          :
          :  net charge                          0          :
          :  unpaired electrons                  0          :
          ...................................................

 iter      E             dE          RMSdq      gap      omega  full diag
   1    -16.0469337 -0.160469E+02  0.189E-02    5.27       0.0  T
   2    -16.0469337 -0.843269E-08  0.114E-02    5.27       2.3  T
   3    -16.0469337 -0.108949E-08  0.581E-04    5.27      44.4  T
   4    -16.0469337 -0.240302E-08  0.298E-04    5.27      86.6  T
   5    -16.0469337 -0.416325E-09  0.801E-05    5.27     322.5  T
   6    -16.0469337 -0.281801E-10  0.225E-05    5.27    1148.8  T

   *** convergence criteria satisfied after 6 iterations ***

         #    Occupation            Energy/Eh            Energy/eV
      -------------------------------------------------------------
         1        2.0000           -0.6189818             -16.8434
       ...           ...                  ...                  ...
         9        2.0000           -0.4763017             -12.9608
        10        2.0000           -0.4658228             -12.6757
        11        2.0000           -0.4565003             -12.4220
        12        2.0000           -0.4379792             -11.9180
        13        2.0000           -0.4275377             -11.6339
        14        2.0000           -0.4219103             -11.4808
        15        2.0000           -0.3825047             -10.4085 (HOMO)
        16                         -0.1889339              -5.1412 (LUMO)
        17                          0.0951011               2.5878
        18                          0.1207281               3.2852
        19                          0.1396318               3.7996
        20                          0.1675349               4.5589
       ...                                ...                  ...
        30                          0.6507978              17.7091
      -------------------------------------------------------------
                  HL-Gap            0.1935708 Eh            5.2673 eV
             Fermi-level           -0.2857193 Eh           -7.7748 eV

 SCC (total)                   0 d,  0 h,  0 min,  0.011 sec
 SCC setup                      ...        0 min,  0.001 sec (  6.303%)
 Dispersion                     ...        0 min,  0.000 sec (  2.310%)
 classical contributions        ...        0 min,  0.000 sec (  1.584%)
 integral evaluation            ...        0 min,  0.000 sec (  3.874%)
 iterations                     ...        0 min,  0.008 sec ( 74.100%)
 molecular gradient             ...        0 min,  0.001 sec ( 10.131%)
 printout                       ...        0 min,  0.000 sec (  1.428%)

         :::::::::::::::::::::::::::::::::::::::::::::::::::::
         ::                     SUMMARY                     ::
         :::::::::::::::::::::::::::::::::::::::::::::::::::::
         :: total energy             -15.776342507784 Eh    ::
         :: gradient norm              0.000986996255 Eh/a0 ::
         :: HOMO-LUMO gap              5.267329997880 eV    ::
         ::.................................................::
         :: SCC energy               -16.046929380704 Eh    ::
         :: -> isotropic ES            0.003112866858 Eh    ::
         :: -> anisotropic ES          0.004937287143 Eh    ::
         :: -> anisotropic XC          0.011414959004 Eh    ::
         :: -> dispersion             -0.007242445652 Eh    ::
         :: repulsion energy           0.270586872920 Eh    ::
         :: add. restraining           0.000000000000 Eh    ::
         :: total charge              -0.000000000000 e     ::
         :::::::::::::::::::::::::::::::::::::::::::::::::::::


Property printout bound to 'properties.out'

           -------------------------------------------------
          | TOTAL ENERGY              -15.776342507784 Eh   |
          | GRADIENT NORM               0.000986996255 Eh/α |
          | HOMO-LUMO GAP               5.267329997880 eV   |
           -------------------------------------------------

------------------------------------------------------------------------
 * finished run on 2026/09/11 at 13:10:19.765     
------------------------------------------------------------------------
 total:
 * wall-time:     0 d,  0 h,  0 min,  0.031 sec
 *  cpu-time:     0 d,  0 h,  0 min,  0.156 sec
 * ratio c/w:     4.950 speedup
 SCF:
 * wall-time:     0 d,  0 h,  0 min,  0.011 sec
 *  cpu-time:     0 d,  0 h,  0 min,  0.062 sec
 * ratio c/w:     5.654 speedup


-------------------------   --------------------
FINAL SINGLE POINT ENERGY       -15.776342507780
-------------------------   --------------------


-------------
DIPOLE MOMENT
-------------
                                X             Y             Z
Total Dipole Moment    :      0.02000       0.02000       0.00300
                        -----------------------------------------
Magnitude (a.u.)       :      0.02844
Magnitude (Debye)      :      0.07230


------------------
CARTESIAN GRADIENT
------------------

   1   C   :    0.000310044    0.000277167    0.000101814
   2   C   :   -0.000143401   -0.000209402    0.000053764
   3   C   :    0.000097794    0.000101174   -0.000061556
   4   C   :    0.000130539   -0.000365148    0.000034401
   5   C   :   -0.000377853    0.000330359    0.000281805
   6   H   :   -0.000126643    0.000072497    0.000001834
   7   H   :   -0.000004252   -0.000118924    0.000013437
   8   H   :   -0.000085589   -0.000108160   -0.000149381
   9   H   :   -0.000017541    0.000037961   -0.000048672
  10   H   :    0.000043131    0.000010035   -0.000008179
  11   H   :    0.000025761    0.000102102    0.000081635
  12   H   :    0.000017475    0.000064480   -0.000103681
  13   H   :    0.000087440    0.000119664   -0.000116962
  14   H   :   -0.000008772   -0.000129267   -0.000105654
  15   H   :    0.000051866   -0.000184538    0.000025393

Difference to translation invariance:
           :   -0.0000000000    0.0000000000    0.0000000000

Difference to rotation invariance:
           :   -0.0000000034   -0.0000000192    0.0000000014

Norm of the Cartesian gradient     ...    0.0009869963
RMS gradient                       ...    0.0001471327
MAX gradient                       ...    0.0003778529
------------------------------------------------------------------------------
                         ORCA GEOMETRY RELAXATION STEP
------------------------------------------------------------------------------

Reading the OPT-File                    .... done
Getting information on internals        .... done
Copying old internal coords+grads       .... done
Making the new internal coordinates     .... (2022 redundants) done
Validating the new internal coordinates .... (2022 redundants) done
Calculating the B-matrix                .... done
Calculating the G,G- and P matrices     .... done
Transforming gradient to internals      .... done
Projecting the internal gradient        .... done
Number of atoms                         ....  15
Number of internal coordinates          ....  58
Current Energy                          ....   -15.776342508 Eh
Current gradient norm                   ....     0.000986996 Eh/bohr
Maximum allowed component of the step   ....  0.300
Current trust radius                    ....  0.675
Updating the Hessian (BFGS)             .... done
Forming the augmented Hessian           .... done
Diagonalizing the augmented Hessian     .... done
Last element of RFO vector              ....  0.999787579
Lowest eigenvalues of augmented Hessian:
 -0.000002391  0.001930592  0.003523286  0.013767138  0.027103833
Length of the computed step             ....  0.020614980
The final length of the internal step   ....  0.020614980
Converting the step to Cartesian space:
 Initial RMS(Int)=    0.0027068794
Transforming coordinates:
 Iter   0:  RMS(Cart)=    0.0044460013 RMS(Int)=    0.8241938733
done
Storing new coordinates                 .... done
The predicted energy change is          ....    -0.000001196
Previously predicted energy change      ....    -0.000004193
Actually observed energy change         ....    -0.000005434
Ratio of predicted to observed change   ....     1.295870344
New trust radius                        ....     0.675000000

                                .--------------------.
          ----------------------|Geometry convergence|-------------------------
          Item                value                   Tolerance       Converged
          ---------------------------------------------------------------------
          Energy change      -0.0000054337            0.0000050000      NO
          RMS gradient        0.0000827606            0.0001000000      YES
          MAX gradient        0.0002907099            0.0003000000      YES
          RMS step            0.0027068794            0.0020000000      NO
          MAX step            0.0077414948            0.0040000000      NO
          -------------------------------------------------------------------------
          ........................................................
          Max(Bonds)      0.0004      Max(Angles)    0.05
          Max(Dihed)        0.44      Max(Improp)    0.00
          ---------------------------------------------------------------------

    ---------------------------------------------------------------------------
                         Redundant Internal Coordinates
                            (Angstroem and degrees)

        Definition                    Value    dE/dq     Step     New-Value
    ----------------------------------------------------------------------------
     1. B(C   1,C   0)                1.4932  0.000149 -0.0002    1.4930   
     2. B(C   2,C   1)                1.3218 -0.000068  0.0000    1.3218   
     3. B(C   3,C   2)                1.4963  0.000116 -0.0001    1.4961   
     4. B(C   4,C   3)                1.5293  0.000291 -0.0004    1.5288   
     5. B(H   5,C   0)                1.0898 -0.000139  0.0002    1.0900   
     6. B(H   6,C   0)                1.0871 -0.000086  0.0001    1.0872   
     7. B(H   7,C   0)                1.0896 -0.000202  0.0002    1.0898   
     8. B(H   8,C   1)                1.0831 -0.000063  0.0001    1.0831   
     9. B(H   9,C   2)                1.0831  0.000007  0.0000    1.0832   
    10. B(H  10,C   3)                1.0941 -0.000125  0.0001    1.0942   
    11. B(H  11,C   3)                1.0915 -0.000113  0.0002    1.0917   
    12. B(H  12,C   4)                1.0874 -0.000161  0.0002    1.0876   
    13. B(H  13,C   4)                1.0874 -0.000154  0.0002    1.0876   
    14. B(H  14,C   4)                1.0877 -0.000152  0.0002    1.0878   
    15. A(H   6,C   0,H   7)          108.86  0.000055   -0.01    108.85   
    16. A(C   1,C   0,H   5)          110.27 -0.000020   -0.02    110.26   
    17. A(C   1,C   0,H   6)          110.98 -0.000063    0.03    111.02   
    18. A(C   1,C   0,H   7)          110.25 -0.000001    0.01    110.26   
    19. A(H   5,C   0,H   6)          108.80 -0.000008    0.01    108.81   
    20. A(H   5,C   0,H   7)          107.59  0.000041   -0.03    107.56   
    21. A(C   2,C   1,H   8)          119.86  0.000041   -0.00    119.86   
    22. A(C   0,C   1,H   8)          115.36  0.000063   -0.02    115.34   
    23. A(C   0,C   1,C   2)          124.78 -0.000104    0.02    124.80   
    24. A(C   3,C   2,H   9)          115.26  0.000047   -0.01    115.25   
    25. A(C   1,C   2,H   9)          119.86 -0.000041    0.00    119.86   
    26. A(C   1,C   2,C   3)          124.87 -0.000006    0.01    124.89   
    27. A(C   4,C   3,H  10)          108.85 -0.000035    0.01    108.86   
    28. A(C   2,C   3,H  10)          109.15 -0.000035    0.03    109.17   
    29. A(C   2,C   3,C   4)          111.16  0.000019    0.02    111.18   
    30. A(H  10,C   3,H  11)          108.06  0.000006   -0.01    108.05   
    31. A(C   4,C   3,H  11)          109.73  0.000059   -0.03    109.71   
    32. A(C   2,C   3,H  11)          109.83 -0.000015   -0.02    109.80   
    33. A(H  13,C   4,H  14)          108.44  0.000137   -0.04    108.40   
    34. A(H  12,C   4,H  14)          108.46 -0.000042    0.01    108.47   
    35. A(C   3,C   4,H  14)          110.41 -0.000143    0.05    110.47   
    36. A(H  12,C   4,H  13)          108.63  0.000025   -0.03    108.60   
    37. A(C   3,C   4,H  13)          110.26 -0.000024    0.02    110.28   
    38. A(C   3,C   4,H  12)          110.57  0.000051   -0.01    110.56   
    39. D(C   2,C   1,C   0,H   5)   -120.71  0.000015    0.41   -120.31   
    40. D(C   2,C   1,C   0,H   6)     -0.08 -0.000050    0.42      0.35   
    41. D(H   8,C   1,C   0,H   6)    179.68 -0.000038    0.36    180.04   
    42. D(C   2,C   1,C   0,H   7)    120.62 -0.000023    0.44    121.06   
    43. D(H   8,C   1,C   0,H   5)     59.04  0.000027    0.35     59.39   
    44. D(C   3,C   2,C   1,C   0)   -179.50  0.000002   -0.04   -179.53   
    45. D(C   3,C   2,C   1,H   8)      0.76 -0.000010    0.02      0.78   
    46. D(H   9,C   2,C   1,H   8)    179.81  0.000003    0.00    179.81   
    47. D(H   9,C   2,C   1,C   0)     -0.44  0.000015   -0.06     -0.50   
    48. D(H  11,C   3,C   2,C   1)     -2.51 -0.000037    0.03     -2.48   
    49. D(H  10,C   3,C   2,H   9)     60.11 -0.000027    0.06     60.17   
    50. D(H  10,C   3,C   2,C   1)   -120.80 -0.000015    0.04   -120.76   
    51. D(C   4,C   3,C   2,H   9)    -59.97  0.000027    0.02    -59.95   
    52. D(C   4,C   3,C   2,C   1)    119.12  0.000039    0.00    119.12   
    53. D(H  12,C   4,C   3,C   2)    178.94 -0.000072    0.35    179.29   
    54. D(H  13,C   4,C   3,H  11)     60.78  0.000010    0.29     61.07   
    55. D(H  13,C   4,C   3,H  10)    178.85  0.000031    0.27    179.12   
    56. D(H  13,C   4,C   3,C   2)    -60.90 -0.000023    0.32    -60.59   
    57. D(H  12,C   4,C   3,H  11)    -59.37 -0.000039    0.32    -59.05   
    58. D(H  12,C   4,C   3,H  10)     58.69 -0.000018    0.30     58.99   
    ----------------------------------------------------------------------------

Geometry step timings:
Preparation and reading OPT file:      0.000 s ( 1.111 %)
Internal coordinates            :      0.000 s ( 1.444 %)
B/P matrices and projection     :      0.000 s (23.333 %)
Hessian update/contruction      :      0.000 s (20.500 %)
Making the step                 :      0.000 s (19.000 %)
Converting the step to Cartesian:      0.000 s ( 2.278 %)
Storing new data                :      0.000 s ( 6.722 %)
Checking convergence            :      0.000 s ( 2.500 %)
Final printing                  :      0.000 s (23.111 %)
Total time                      :      0.002 s

Time for energy+gradient        :      0.043 s
Time for complete geometry iter :      0.045 s

         *************************************************************
         *                GEOMETRY OPTIMIZATION CYCLE  11            *
         *************************************************************
---------------------------------
CARTESIAN COORDINATES (ANGSTROEM)
---------------------------------
  C     2.465906    0.642481   -0.188870
  C     1.253829   -0.157704    0.157085
  C     0.077146   -0.038097   -0.433158
  C    -1.141270   -0.831898   -0.081403
  C    -2.277519    0.077956    0.385986
  H     3.275265   -0.015812   -0.504474
  H     2.253224    1.345557   -0.990400
  H     2.813675    1.196772    0.682662
  H     1.387733   -0.882266    0.950975
  H    -0.057610    0.688588   -1.224992
  H    -1.473913   -1.388962   -0.962463
  H    -0.899920   -1.551964    0.702873
  H    -3.161472   -0.508027    0.627022
  H    -1.976460    0.632257    1.272027
  H    -2.538613    0.791120   -0.392869

----------------------------
CARTESIAN COORDINATES (A.U.)
----------------------------
  NO LB    ZA    FRAG    MASS        X           Y           Z
   0 C   6.0000    1    12.011    4.659886    1.214113   -0.356913
   1 C   6.0000    1    12.011    2.369394   -0.298016    0.296847
   2 C   6.0000    1    12.011    0.145785   -0.071993   -0.818550
   3 C   6.0000    1    12.011   -2.156688   -1.572060   -0.153830
   4 C   6.0000    1    12.011   -4.303888    0.147315    0.729408
   5 H   1.0000    1     1.008    6.189353   -0.029881   -0.953318
   6 H   1.0000    1     1.008    4.257977    2.542735   -1.871584
   7 H   1.0000    1     1.008    5.317075    2.261572    1.290044
   8 H   1.0000    1     1.008    2.622434   -1.667242    1.797083
   9 H   1.0000    1     1.008   -0.108868    1.301242   -2.314900
  10 H   1.0000    1     1.008   -2.785293   -2.624758   -1.818791
  11 H   1.0000    1     1.008   -1.700601   -2.932788    1.328237
  12 H   1.0000    1     1.008   -5.974315   -0.960032    1.184899
  13 H   1.0000    1     1.008   -3.734968    1.194793    2.403782
  14 H   1.0000    1     1.008   -4.797283    1.495001   -0.742415

      -----------------------------------------------------------      
     |                   =====================                   |     
     |                           x T B                           |     
     |                   =====================                   |     
     |                         S. Grimme                         |     
     |          Mulliken Center for Theoretical Chemistry        |     
     |                    University of Bonn                     |     
      -----------------------------------------------------------      

   * xtb version 6.7.1 (edcfbbe) compiled by 'albert@albert-system' on 2024-07-22

   xtb is free software: you can redistribute it and/or modify it under
   the terms of the GNU Lesser General Public License as published by
   the Free Software Foundation, either version 3 of the License, or
   (at your option) any later version.
   
   xtb is distributed in the hope that it will be useful,
   but WITHOUT ANY WARRANTY; without even the implied warranty of
   MERCHANTABILITY or FITNESS FOR A PARTICULAR PURPOSE.  See the
   GNU Lesser General Public License for more details.
   
   Cite this work as:
   * C. Bannwarth, E. Caldeweyher, S. Ehlert, A. Hansen, P. Pracht,
     J. Seibert, S. Spicher, S. Grimme, WIREs Comput. Mol. Sci., 2020, 11,
     e01493. DOI: 10.1002/wcms.1493
   
   for GFN2-xTB:
   * C. Bannwarth, S. Ehlert and S. Grimme., J. Chem. Theory Comput., 2019,
     15, 1652-1671. DOI: 10.1021/acs.jctc.8b01176
   for GFN1-xTB:
   * S. Grimme, C. Bannwarth, P. Shushkov, J. Chem. Theory Comput., 2017,
     13, 1989-2009. DOI: 10.1021/acs.jctc.7b00118
   for GFN0-xTB:
   * P. Pracht, E. Caldeweyher, S. Ehlert, S. Grimme, ChemRxiv, 2019, preprint.
     DOI: 10.26434/chemrxiv.8326202.v1
   for GFN-FF:
   * S. Spicher and S. Grimme, Angew. Chem. Int. Ed., 2020, 59, 15665-15673.
     DOI: 10.1002/anie.202004239
   
   for ALPB and GBSA implicit solvation:
   * S. Ehlert, M. Stahn, S. Spicher, S. Grimme, J. Chem. Theory Comput.,
     2021, 17, 4250-4261. DOI: 10.1021/acs.jctc.1c00471
   
   for ddCOSMO and CPCM-X implicit solvation:
   * M. Stahn, S. Ehlert, S. Grimme, J. Phys. Chem. A,
     2023, XX, XXXX-XXXX. DOI: 10.1021/acs.jpca.3c04382
   
   for DFT-D4:
   * E. Caldeweyher, C. Bannwarth and S. Grimme, J. Chem. Phys., 2017,
     147, 034112. DOI: 10.1063/1.4993215
   * E. Caldeweyher, S. Ehlert, A. Hansen, H. Neugebauer, S. Spicher,
     C. Bannwarth and S. Grimme, J. Chem. Phys., 2019, 150, 154122.
     DOI: 10.1063/1.5090222
   * E. Caldeweyher, J.-M. Mewes, S. Ehlert and S. Grimme, Phys. Chem. Chem. Phys.
     2020, 22, 8499-8512. DOI: 10.1039/D0CP00502A
   
   for sTDA-xTB:
   * S. Grimme and C. Bannwarth, J. Chem. Phys., 2016, 145, 054103.
     DOI: 10.1063/1.4959605
   
   in the mass-spec context:
   * V. Asgeirsson, C. Bauer and S. Grimme, Chem. Sci., 2017, 8, 4879.
     DOI: 10.1039/c7sc00601b
   * J. Koopman and S. Grimme, ACS Omega 2019, 4, 12, 15120-15133.
     DOI: 10.1021/acsomega.9b02011
   
   for metadynamics refer to:
   * S. Grimme, J. Chem. Theory Comput., 2019, 155, 2847-2862
     DOI: 10.1021/acs.jctc.9b00143
   
   for SPH calculations refer to:
   * S. Spicher and S. Grimme, J. Chem. Theory Comput., 2021, 17, 1701-1714
     DOI: 10.1021/acs.jctc.0c01306
   
   for ONIOM refer to:
   * C. Plett, A. Katbashev, S. Ehlert, S. Grimme, M. Bursch,
     Phys. Chem. Chem. Phys., 2023, 25, 17860-17868. DOI: 10.1039/D3CP02178E
   
   for DIPRO refer to:
   * J. Kohn, N. Gildemeister, S. Grimme, D. Fazzi, A. Hansen,
     J. Chem. Phys., 2023, just accepted.
   
   for PTB refer to:
   * S. Grimme, M. Mueller, A. Hansen, J. Chem. Phys., 2023, 158, 124111.
     DOI: 10.1063/5.0137838
   
   with help from (in alphabetical order)
   P. Atkinson, C. Bannwarth, F. Bohle, G. Brandenburg, E. Caldeweyher
   M. Checinski, S. Dohm, S. Ehlert, S. Ehrlich, I. Gerasimov, C. Hölzer
   A. Katbashev, J. Kohn, J. Koopman, C. Lavigne, S. Lehtola, F. März, M. Müller,
   F. Musil, H. Neugebauer, J. Pisarek, C. Plett, P. Pracht, F. Pultar,
   J. Seibert, P. Shushkov, S. Spicher, M. Stahn, M. Steiner, T. Strunk,
   J. Stückrath, T. Rose, and J. Unsleber
   
 * started run on 2026/09/11 at 13:10:19.778     
   ID    Z sym.   atoms
    1    6 C      1-5
    2    1 H      6-15

           -------------------------------------------------
          |                Calculation Setup                |
           -------------------------------------------------

          program call               : /apps/eb/ORCA/6.1.1-gompi-2023b-avx2/bin/otool_xtb goat_XTB.xyz --grad -c 0 -u 0 -P 8 --namespace goat --input goat_XTB.input.tmp --acc 0.200000
          hostname                   : a2-7
          calculation namespace      : goat
          coordinate file            : goat_XTB.xyz
          omp threads                :                     8


           -------------------------------------------------
          |                 G F N 2 - x T B                 |
           -------------------------------------------------

        Reference                      10.1021/acs.jctc.8b01176
      * Hamiltonian:
        H0-scaling (s, p, d)           1.850000    2.230000    2.230000
        zeta-weighting                 0.500000
      * Dispersion:
        s8                             2.700000
        a1                             0.520000
        a2                             5.000000
        s9                             5.000000
      * Repulsion:
        kExp                           1.500000    1.000000
        rExp                           1.000000
      * Coulomb:
        alpha                          2.000000
        third order                    shell-resolved
        anisotropic                    true
        a3                             3.000000
        a5                             4.000000
        cn-shift                       1.200000
        cn-exp                         4.000000
        max-rad                        5.000000

q/qsh data taken from xtbrestart
CAMM data taken from xtbrestart

          ...................................................
          :                      SETUP                      :
          :.................................................:
          :  # basis functions                  30          :
          :  # atomic orbitals                  30          :
          :  # shells                           20          :
          :  # electrons                        30          :
          :  max. iterations                   250          :
          :  Hamiltonian                  GFN2-xTB          :
          :  restarted?                       true          :
          :  GBSA solvation                  false          :
          :  PC potential                    false          :
          :  electronic temp.          300.0000000     K    :
          :  accuracy                    0.2000000          :
          :  -> integral cutoff          0.3198970E+02      :
          :  -> integral neglect         0.2000000E-08      :
          :  -> SCF convergence          0.2000000E-06 Eh   :
          :  -> wf. convergence          0.2000000E-04 e    :
          :  Broyden damping             0.4000000          :
          :  net charge                          0          :
          :  unpaired electrons                  0          :
          ...................................................

 iter      E             dE          RMSdq      gap      omega  full diag
   1    -16.0468264 -0.160468E+02  0.855E-03    5.27       0.0  T
   2    -16.0468264 -0.809082E-08  0.514E-03    5.27       5.0  T
   3    -16.0468264  0.602355E-08  0.778E-04    5.27      33.2  T
   4    -16.0468264 -0.638049E-08  0.297E-04    5.27      87.0  T
   5    -16.0468264 -0.103411E-08  0.737E-05    5.27     350.2  T
   6    -16.0468264 -0.617817E-11  0.270E-05    5.27     957.0  T

   *** convergence criteria satisfied after 6 iterations ***

         #    Occupation            Energy/Eh            Energy/eV
      -------------------------------------------------------------
         1        2.0000           -0.6189950             -16.8437
       ...           ...                  ...                  ...
         9        2.0000           -0.4762996             -12.9608
        10        2.0000           -0.4658523             -12.6765
        11        2.0000           -0.4565112             -12.4223
        12        2.0000           -0.4379693             -11.9178
        13        2.0000           -0.4275203             -11.6334
        14        2.0000           -0.4218809             -11.4800
        15        2.0000           -0.3825016             -10.4084 (HOMO)
        16                         -0.1889374              -5.1412 (LUMO)
        17                          0.0951922               2.5903
        18                          0.1206396               3.2828
        19                          0.1399548               3.8084
        20                          0.1673288               4.5532
       ...                                ...                  ...
        30                          0.6508588              17.7108
      -------------------------------------------------------------
                  HL-Gap            0.1935642 Eh            5.2672 eV
             Fermi-level           -0.2857195 Eh           -7.7748 eV

 SCC (total)                   0 d,  0 h,  0 min,  0.012 sec
 SCC setup                      ...        0 min,  0.001 sec (  5.560%)
 Dispersion                     ...        0 min,  0.000 sec (  2.002%)
 classical contributions        ...        0 min,  0.000 sec (  1.337%)
 integral evaluation            ...        0 min,  0.001 sec (  4.183%)
 iterations                     ...        0 min,  0.009 sec ( 74.604%)
 molecular gradient             ...        0 min,  0.001 sec ( 10.522%)
 printout                       ...        0 min,  0.000 sec (  1.552%)

         :::::::::::::::::::::::::::::::::::::::::::::::::::::
         ::                     SUMMARY                     ::
         :::::::::::::::::::::::::::::::::::::::::::::::::::::
         :: total energy             -15.776343974340 Eh    ::
         :: gradient norm              0.000400311747 Eh/a0 ::
         :: HOMO-LUMO gap              5.267150784771 eV    ::
         ::.................................................::
         :: SCC energy               -16.046822052809 Eh    ::
         :: -> isotropic ES            0.003108840198 Eh    ::
         :: -> anisotropic ES          0.004938872708 Eh    ::
         :: -> anisotropic XC          0.011416501855 Eh    ::
         :: -> dispersion             -0.007242438611 Eh    ::
         :: repulsion energy           0.270478078469 Eh    ::
         :: add. restraining           0.000000000000 Eh    ::
         :: total charge               0.000000000000 e     ::
         :::::::::::::::::::::::::::::::::::::::::::::::::::::


Property printout bound to 'properties.out'

           -------------------------------------------------
          | TOTAL ENERGY              -15.776343974340 Eh   |
          | GRADIENT NORM               0.000400311747 Eh/α |
          | HOMO-LUMO GAP               5.267150784771 eV   |
           -------------------------------------------------

------------------------------------------------------------------------
 * finished run on 2026/09/11 at 13:10:19.819     
------------------------------------------------------------------------
 total:
 * wall-time:     0 d,  0 h,  0 min,  0.041 sec
 *  cpu-time:     0 d,  0 h,  0 min,  0.167 sec
 * ratio c/w:     4.123 speedup
 SCF:
 * wall-time:     0 d,  0 h,  0 min,  0.013 sec
 *  cpu-time:     0 d,  0 h,  0 min,  0.059 sec
 * ratio c/w:     4.689 speedup


-------------------------   --------------------
FINAL SINGLE POINT ENERGY       -15.776343974340
-------------------------   --------------------


-------------
DIPOLE MOMENT
-------------
                                X             Y             Z
Total Dipole Moment    :      0.02000       0.01900       0.00300
                        -----------------------------------------
Magnitude (a.u.)       :      0.02775
Magnitude (Debye)      :      0.07053


------------------
CARTESIAN GRADIENT
------------------

   1   C   :    0.000102140    0.000178753    0.000026621
   2   C   :   -0.000073735   -0.000106934    0.000020895
   3   C   :    0.000073255   -0.000009454    0.000022051
   4   C   :    0.000041512   -0.000110685   -0.000030633
   5   C   :   -0.000118863    0.000106964    0.000127209
   6   H   :   -0.000053135    0.000008295    0.000003624
   7   H   :    0.000004110   -0.000056252    0.000005836
   8   H   :   -0.000020470   -0.000057038   -0.000056072
   9   H   :   -0.000000231    0.000023087   -0.000016027
  10   H   :    0.000017121    0.000010304   -0.000011449
  11   H   :   -0.000015949    0.000058082    0.000033675
  12   H   :    0.000026733    0.000030200   -0.000032565
  13   H   :    0.000027747    0.000045888   -0.000048158
  14   H   :   -0.000015912   -0.000043383   -0.000045984
  15   H   :    0.000005676   -0.000077825    0.000000977

Difference to translation invariance:
           :    0.0000000000   -0.0000000000   -0.0000000000

Difference to rotation invariance:
           :    0.0000000051   -0.0000000173    0.0000000002

Norm of the Cartesian gradient     ...    0.0004003117
RMS gradient                       ...    0.0000596750
MAX gradient                       ...    0.0001787532
------------------------------------------------------------------------------
                         ORCA GEOMETRY RELAXATION STEP
------------------------------------------------------------------------------

Reading the OPT-File                    .... done
Getting information on internals        .... done
Copying old internal coords+grads       .... done
Making the new internal coordinates     .... (2022 redundants) done
Validating the new internal coordinates .... (2022 redundants) done
Calculating the B-matrix                .... done
Calculating the G,G- and P matrices     .... done
Transforming gradient to internals      .... done
Projecting the internal gradient        .... done
Number of atoms                         ....  15
Number of internal coordinates          ....  58
Current Energy                          ....   -15.776343974 Eh
Current gradient norm                   ....     0.000400312 Eh/bohr
Maximum allowed component of the step   ....  0.300
Current trust radius                    ....  0.675
Updating the Hessian (BFGS)             .... done
Forming the augmented Hessian           .... done
Diagonalizing the augmented Hessian     .... done
Last element of RFO vector              ....  0.999994957
Lowest eigenvalues of augmented Hessian:
 -0.000000362  0.001995228  0.003570883  0.013754208  0.027032400
Length of the computed step             ....  0.003175758
The final length of the internal step   ....  0.003175758
Converting the step to Cartesian space:
 Initial RMS(Int)=    0.0004169975
Transforming coordinates:
 Iter   0:  RMS(Cart)=    0.0007143503 RMS(Int)=    0.0004169919
done
Storing new coordinates                 .... done
The predicted energy change is          ....    -0.000000181
Previously predicted energy change      ....    -0.000001196
Actually observed energy change         ....    -0.000001467
Ratio of predicted to observed change   ....     1.226393090
New trust radius                        ....     0.700000000

                                .--------------------.
          ----------------------|Geometry convergence|-------------------------
          Item                value                   Tolerance       Converged
          ---------------------------------------------------------------------
          Energy change      -0.0000014666            0.0000050000      YES
          RMS gradient        0.0000370431            0.0001000000      YES
          MAX gradient        0.0001045654            0.0003000000      YES
          RMS step            0.0004169975            0.0020000000      YES
          MAX step            0.0011814423            0.0040000000      YES
          -------------------------------------------------------------------------
          ........................................................
          Max(Bonds)      0.0002      Max(Angles)    0.03
          Max(Dihed)        0.07      Max(Improp)    0.00
          ---------------------------------------------------------------------

                    ***********************HURRAY********************
                    ***        THE OPTIMIZATION HAS CONVERGED     ***
                    *************************************************


    ---------------------------------------------------------------------------
                         Redundant Internal Coordinates

                          --- Optimized Parameters ---  
                            (Angstroem and degrees)

        Definition                    OldVal   dE/dq     Step     FinalVal
    ----------------------------------------------------------------------------
     1. B(C   1,C   0)                1.4930  0.000071 -0.0001    1.4929   
     2. B(C   2,C   1)                1.3218 -0.000043  0.0000    1.3219   
     3. B(C   3,C   2)                1.4961  0.000036 -0.0001    1.4961   
     4. B(C   4,C   3)                1.5288  0.000105 -0.0002    1.5286   
     5. B(H   5,C   0)                1.0900 -0.000046  0.0001    1.0900   
     6. B(H   6,C   0)                1.0872 -0.000041  0.0001    1.0873   
     7. B(H   7,C   0)                1.0898 -0.000080  0.0001    1.0900   
     8. B(H   8,C   1)                1.0831 -0.000027  0.0001    1.0832   
     9. B(H   9,C   2)                1.0832  0.000013 -0.0000    1.0831   
    10. B(H  10,C   3)                1.0942 -0.000052  0.0001    1.0943   
    11. B(H  11,C   3)                1.0917 -0.000037  0.0001    1.0918   
    12. B(H  12,C   4)                1.0876 -0.000058  0.0001    1.0877   
    13. B(H  13,C   4)                1.0876 -0.000064  0.0001    1.0878   
    14. B(H  14,C   4)                1.0878 -0.000053  0.0001    1.0879   
    15. A(H   6,C   0,H   7)          108.85  0.000034   -0.02    108.83   
    16. A(C   1,C   0,H   5)          110.26 -0.000045    0.01    110.27   
    17. A(C   1,C   0,H   6)          111.01 -0.000010    0.01    111.03   
    18. A(C   1,C   0,H   7)          110.26  0.000009   -0.00    110.26   
    19. A(H   5,C   0,H   6)          108.81  0.000003    0.01    108.81   
    20. A(H   5,C   0,H   7)          107.56  0.000010   -0.01    107.55   
    21. A(C   2,C   1,H   8)          119.86  0.000035   -0.01    119.85   
    22. A(C   0,C   1,H   8)          115.34  0.000025   -0.01    115.33   
    23. A(C   0,C   1,C   2)          124.80 -0.000061    0.02    124.82   
    24. A(C   3,C   2,H   9)          115.25  0.000004   -0.01    115.24   
    25. A(C   1,C   2,H   9)          119.86 -0.000033    0.01    119.87   
    26. A(C   1,C   2,C   3)          124.89  0.000029   -0.00    124.89   
    27. A(C   4,C   3,H  10)          108.86 -0.000054    0.02    108.87   
    28. A(C   2,C   3,H  10)          109.17 -0.000004    0.01    109.18   
    29. A(C   2,C   3,C   4)          111.18  0.000063   -0.00    111.18   
    30. A(H  10,C   3,H  11)          108.05  0.000018   -0.01    108.04   
    31. A(C   4,C   3,H  11)          109.71  0.000022   -0.01    109.69   
    32. A(C   2,C   3,H  11)          109.80 -0.000046    0.00    109.81   
    33. A(H  13,C   4,H  14)          108.40  0.000068   -0.02    108.37   
    34. A(H  12,C   4,H  14)          108.47 -0.000043    0.01    108.48   
    35. A(C   3,C   4,H  14)          110.47 -0.000057    0.03    110.49   
    36. A(H  12,C   4,H  13)          108.60  0.000003   -0.01    108.59   
    37. A(C   3,C   4,H  13)          110.28  0.000024   -0.00    110.28   
    38. A(C   3,C   4,H  12)          110.56  0.000006   -0.00    110.56   
    39. D(C   2,C   1,C   0,H   5)   -120.31  0.000006    0.04   -120.27   
    40. D(C   2,C   1,C   0,H   6)      0.35 -0.000027    0.06      0.41   
    41. D(H   8,C   1,C   0,H   6)   -179.96 -0.000018    0.05   -179.91   
    42. D(C   2,C   1,C   0,H   7)    121.06  0.000015    0.05    121.11   
    43. D(H   8,C   1,C   0,H   5)     59.39  0.000015    0.02     59.41   
    44. D(C   3,C   2,C   1,C   0)   -179.53 -0.000000    0.00   -179.53   
    45. D(C   3,C   2,C   1,H   8)      0.78 -0.000009    0.02      0.80   
    46. D(H   9,C   2,C   1,H   8)    179.81 -0.000002    0.00    179.82   
    47. D(H   9,C   2,C   1,C   0)     -0.50  0.000007   -0.01     -0.52   
    48. D(H  11,C   3,C   2,C   1)     -2.48 -0.000018    0.02     -2.46   
    49. D(H  10,C   3,C   2,H   9)     60.17 -0.000018    0.04     60.21   
    50. D(H  10,C   3,C   2,C   1)   -120.76 -0.000011    0.02   -120.74   
    51. D(C   4,C   3,C   2,H   9)    -59.95  0.000013    0.01    -59.93   
    52. D(C   4,C   3,C   2,C   1)    119.12  0.000020   -0.00    119.12   
    53. D(H  12,C   4,C   3,C   2)    179.29 -0.000014    0.07    179.36   
    54. D(H  13,C   4,C   3,H  11)     61.07  0.000009    0.04     61.11   
    55. D(H  13,C   4,C   3,H  10)    179.11  0.000012    0.03    179.15   
    56. D(H  13,C   4,C   3,C   2)    -60.58  0.000010    0.05    -60.54   
    57. D(H  12,C   4,C   3,H  11)    -59.05 -0.000015    0.06    -58.99   
    58. D(H  12,C   4,C   3,H  10)     58.99 -0.000012    0.05     59.04   
    ----------------------------------------------------------------------------

Geometry step timings:
Preparation and reading OPT file:      0.000 s ( 1.201 %)
Internal coordinates            :      0.000 s ( 1.429 %)
B/P matrices and projection     :      0.001 s (28.988 %)
Hessian update/contruction      :      0.000 s (17.153 %)
Making the step                 :      0.000 s (19.897 %)
Converting the step to Cartesian:      0.000 s ( 2.344 %)
Storing new data                :      0.000 s ( 1.658 %)
Checking convergence            :      0.000 s ( 3.202 %)
Final printing                  :      0.000 s (24.128 %)
Total time                      :      0.002 s
                 *******************************************************
                 *** FINAL ENERGY EVALUATION AT THE STATIONARY POINT ***
                 ***               (AFTER   11 CYCLES)               ***
                 *******************************************************
---------------------------------
CARTESIAN COORDINATES (ANGSTROEM)
---------------------------------
  C     2.465871    0.642372   -0.188756
  C     1.253719   -0.157559    0.156928
  C     0.077018   -0.038060   -0.433358
  C    -1.141297   -0.831870   -0.081531
  C    -2.277383    0.077908    0.385709
  H     3.275167   -0.015876   -0.504869
  H     2.253363    1.346320   -0.989644
  H     2.814025    1.196050    0.683192
  H     1.387561   -0.882301    0.950735
  H    -0.057932    0.688641   -1.225132
  H    -1.473786   -1.389471   -0.962410
  H    -0.900004   -1.551689    0.703104
  H    -3.160999   -0.508260    0.627972
  H    -1.975977    0.632997    1.271281
  H    -2.539345    0.790799   -0.393222

----------------------------
CARTESIAN COORDINATES (A.U.)
----------------------------
  NO LB    ZA    FRAG    MASS        X           Y           Z
   0 C   6.0000    1    12.011    4.659821    1.213907   -0.356697
   1 C   6.0000    1    12.011    2.369185   -0.297744    0.296551
   2 C   6.0000    1    12.011    0.145543   -0.071923   -0.818927
   3 C   6.0000    1    12.011   -2.156738   -1.572007   -0.154071
   4 C   6.0000    1    12.011   -4.303631    0.147224    0.728885
   5 H   1.0000    1     1.008    6.189168   -0.030001   -0.954064
   6 H   1.0000    1     1.008    4.258239    2.544176   -1.870157
   7 H   1.0000    1     1.008    5.317736    2.260207    1.291045
   8 H   1.0000    1     1.008    2.622110   -1.667308    1.796628
   9 H   1.0000    1     1.008   -0.109476    1.301342   -2.315163
  10 H   1.0000    1     1.008   -2.785053   -2.625719   -1.818691
  11 H   1.0000    1     1.008   -1.700761   -2.932267    1.328674
  12 H   1.0000    1     1.008   -5.973422   -0.960473    1.186695
  13 H   1.0000    1     1.008   -3.734055    1.196191    2.402373
  14 H   1.0000    1     1.008   -4.798666    1.494394   -0.743081

      -----------------------------------------------------------      
     |                   =====================                   |     
     |                           x T B                           |     
     |                   =====================                   |     
     |                         S. Grimme                         |     
     |          Mulliken Center for Theoretical Chemistry        |     
     |                    University of Bonn                     |     
      -----------------------------------------------------------      

   * xtb version 6.7.1 (edcfbbe) compiled by 'albert@albert-system' on 2024-07-22

   xtb is free software: you can redistribute it and/or modify it under
   the terms of the GNU Lesser General Public License as published by
   the Free Software Foundation, either version 3 of the License, or
   (at your option) any later version.
   
   xtb is distributed in the hope that it will be useful,
   but WITHOUT ANY WARRANTY; without even the implied warranty of
   MERCHANTABILITY or FITNESS FOR A PARTICULAR PURPOSE.  See the
   GNU Lesser General Public License for more details.
   
   Cite this work as:
   * C. Bannwarth, E. Caldeweyher, S. Ehlert, A. Hansen, P. Pracht,
     J. Seibert, S. Spicher, S. Grimme, WIREs Comput. Mol. Sci., 2020, 11,
     e01493. DOI: 10.1002/wcms.1493
   
   for GFN2-xTB:
   * C. Bannwarth, S. Ehlert and S. Grimme., J. Chem. Theory Comput., 2019,
     15, 1652-1671. DOI: 10.1021/acs.jctc.8b01176
   for GFN1-xTB:
   * S. Grimme, C. Bannwarth, P. Shushkov, J. Chem. Theory Comput., 2017,
     13, 1989-2009. DOI: 10.1021/acs.jctc.7b00118
   for GFN0-xTB:
   * P. Pracht, E. Caldeweyher, S. Ehlert, S. Grimme, ChemRxiv, 2019, preprint.
     DOI: 10.26434/chemrxiv.8326202.v1
   for GFN-FF:
   * S. Spicher and S. Grimme, Angew. Chem. Int. Ed., 2020, 59, 15665-15673.
     DOI: 10.1002/anie.202004239
   
   for ALPB and GBSA implicit solvation:
   * S. Ehlert, M. Stahn, S. Spicher, S. Grimme, J. Chem. Theory Comput.,
     2021, 17, 4250-4261. DOI: 10.1021/acs.jctc.1c00471
   
   for ddCOSMO and CPCM-X implicit solvation:
   * M. Stahn, S. Ehlert, S. Grimme, J. Phys. Chem. A,
     2023, XX, XXXX-XXXX. DOI: 10.1021/acs.jpca.3c04382
   
   for DFT-D4:
   * E. Caldeweyher, C. Bannwarth and S. Grimme, J. Chem. Phys., 2017,
     147, 034112. DOI: 10.1063/1.4993215
   * E. Caldeweyher, S. Ehlert, A. Hansen, H. Neugebauer, S. Spicher,
     C. Bannwarth and S. Grimme, J. Chem. Phys., 2019, 150, 154122.
     DOI: 10.1063/1.5090222
   * E. Caldeweyher, J.-M. Mewes, S. Ehlert and S. Grimme, Phys. Chem. Chem. Phys.
     2020, 22, 8499-8512. DOI: 10.1039/D0CP00502A
   
   for sTDA-xTB:
   * S. Grimme and C. Bannwarth, J. Chem. Phys., 2016, 145, 054103.
     DOI: 10.1063/1.4959605
   
   in the mass-spec context:
   * V. Asgeirsson, C. Bauer and S. Grimme, Chem. Sci., 2017, 8, 4879.
     DOI: 10.1039/c7sc00601b
   * J. Koopman and S. Grimme, ACS Omega 2019, 4, 12, 15120-15133.
     DOI: 10.1021/acsomega.9b02011
   
   for metadynamics refer to:
   * S. Grimme, J. Chem. Theory Comput., 2019, 155, 2847-2862
     DOI: 10.1021/acs.jctc.9b00143
   
   for SPH calculations refer to:
   * S. Spicher and S. Grimme, J. Chem. Theory Comput., 2021, 17, 1701-1714
     DOI: 10.1021/acs.jctc.0c01306
   
   for ONIOM refer to:
   * C. Plett, A. Katbashev, S. Ehlert, S. Grimme, M. Bursch,
     Phys. Chem. Chem. Phys., 2023, 25, 17860-17868. DOI: 10.1039/D3CP02178E
   
   for DIPRO refer to:
   * J. Kohn, N. Gildemeister, S. Grimme, D. Fazzi, A. Hansen,
     J. Chem. Phys., 2023, just accepted.
   
   for PTB refer to:
   * S. Grimme, M. Mueller, A. Hansen, J. Chem. Phys., 2023, 158, 124111.
     DOI: 10.1063/5.0137838
   
   with help from (in alphabetical order)
   P. Atkinson, C. Bannwarth, F. Bohle, G. Brandenburg, E. Caldeweyher
   M. Checinski, S. Dohm, S. Ehlert, S. Ehrlich, I. Gerasimov, C. Hölzer
   A. Katbashev, J. Kohn, J. Koopman, C. Lavigne, S. Lehtola, F. März, M. Müller,
   F. Musil, H. Neugebauer, J. Pisarek, C. Plett, P. Pracht, F. Pultar,
   J. Seibert, P. Shushkov, S. Spicher, M. Stahn, M. Steiner, T. Strunk,
   J. Stückrath, T. Rose, and J. Unsleber
   
 * started run on 2026/09/11 at 13:10:19.833     
   ID    Z sym.   atoms
    1    6 C      1-5
    2    1 H      6-15

           -------------------------------------------------
          |                Calculation Setup                |
           -------------------------------------------------

          program call               : /apps/eb/ORCA/6.1.1-gompi-2023b-avx2/bin/otool_xtb goat_XTB.xyz --grad -c 0 -u 0 -P 8 --namespace goat --input goat_XTB.input.tmp --acc 0.200000
          hostname                   : a2-7
          calculation namespace      : goat
          coordinate file            : goat_XTB.xyz
          omp threads                :                     8


           -------------------------------------------------
          |                 G F N 2 - x T B                 |
           -------------------------------------------------

        Reference                      10.1021/acs.jctc.8b01176
      * Hamiltonian:
        H0-scaling (s, p, d)           1.850000    2.230000    2.230000
        zeta-weighting                 0.500000
      * Dispersion:
        s8                             2.700000
        a1                             0.520000
        a2                             5.000000
        s9                             5.000000
      * Repulsion:
        kExp                           1.500000    1.000000
        rExp                           1.000000
      * Coulomb:
        alpha                          2.000000
        third order                    shell-resolved
        anisotropic                    true
        a3                             3.000000
        a5                             4.000000
        cn-shift                       1.200000
        cn-exp                         4.000000
        max-rad                        5.000000

q/qsh data taken from xtbrestart
CAMM data taken from xtbrestart

          ...................................................
          :                      SETUP                      :
          :.................................................:
          :  # basis functions                  30          :
          :  # atomic orbitals                  30          :
          :  # shells                           20          :
          :  # electrons                        30          :
          :  max. iterations                   250          :
          :  Hamiltonian                  GFN2-xTB          :
          :  restarted?                       true          :
          :  GBSA solvation                  false          :
          :  PC potential                    false          :
          :  electronic temp.          300.0000000     K    :
          :  accuracy                    0.2000000          :
          :  -> integral cutoff          0.3198970E+02      :
          :  -> integral neglect         0.2000000E-08      :
          :  -> SCF convergence          0.2000000E-06 Eh   :
          :  -> wf. convergence          0.2000000E-04 e    :
          :  Broyden damping             0.4000000          :
          :  net charge                          0          :
          :  unpaired electrons                  0          :
          ...................................................

 iter      E             dE          RMSdq      gap      omega  full diag
   1    -16.0467591 -0.160468E+02  0.198E-03    5.27       0.0  T
   2    -16.0467591 -0.207694E-08  0.116E-03    5.27      22.3  T
   3    -16.0467591  0.336403E-09  0.265E-04    5.27      97.4  T
   4    -16.0467591 -0.254342E-09  0.132E-04    5.27     194.9  T
   5    -16.0467591 -0.223210E-09  0.248E-05    5.27    1041.1  T

   *** convergence criteria satisfied after 5 iterations ***

         #    Occupation            Energy/Eh            Energy/eV
      -------------------------------------------------------------
         1        2.0000           -0.6190029             -16.8439
       ...           ...                  ...                  ...
         9        2.0000           -0.4763001             -12.9608
        10        2.0000           -0.4658596             -12.6767
        11        2.0000           -0.4565220             -12.4226
        12        2.0000           -0.4379578             -11.9174
        13        2.0000           -0.4275050             -11.6330
        14        2.0000           -0.4218788             -11.4799
        15        2.0000           -0.3824963             -10.4083 (HOMO)
        16                         -0.1889427              -5.1414 (LUMO)
        17                          0.0952715               2.5925
        18                          0.1205795               3.2811
        19                          0.1400761               3.8117
        20                          0.1672239               4.5504
       ...                                ...                  ...
        30                          0.6508314              17.7100
      -------------------------------------------------------------
                  HL-Gap            0.1935536 Eh            5.2669 eV
             Fermi-level           -0.2857195 Eh           -7.7748 eV

 SCC (total)                   0 d,  0 h,  0 min,  0.012 sec
 SCC setup                      ...        0 min,  0.001 sec (  5.610%)
 Dispersion                     ...        0 min,  0.000 sec (  1.738%)
 classical contributions        ...        0 min,  0.000 sec (  1.445%)
 integral evaluation            ...        0 min,  0.000 sec (  3.862%)
 iterations                     ...        0 min,  0.009 sec ( 71.964%)
 molecular gradient             ...        0 min,  0.002 sec ( 13.612%)
 printout                       ...        0 min,  0.000 sec (  1.512%)

         :::::::::::::::::::::::::::::::::::::::::::::::::::::
         ::                     SUMMARY                     ::
         :::::::::::::::::::::::::::::::::::::::::::::::::::::
         :: total energy             -15.776344192963 Eh    ::
         :: gradient norm              0.000107828724 Eh/a0 ::
         :: HOMO-LUMO gap              5.266860436385 eV    ::
         ::.................................................::
         :: SCC energy               -16.046754803428 Eh    ::
         :: -> isotropic ES            0.003106742724 Eh    ::
         :: -> anisotropic ES          0.004940159409 Eh    ::
         :: -> anisotropic XC          0.011417754217 Eh    ::
         :: -> dispersion             -0.007242649538 Eh    ::
         :: repulsion energy           0.270410610465 Eh    ::
         :: add. restraining           0.000000000000 Eh    ::
         :: total charge               0.000000000000 e     ::
         :::::::::::::::::::::::::::::::::::::::::::::::::::::


Property printout bound to 'properties.out'

           -------------------------------------------------
          | TOTAL ENERGY              -15.776344192963 Eh   |
          | GRADIENT NORM               0.000107828724 Eh/α |
          | HOMO-LUMO GAP               5.266860436385 eV   |
           -------------------------------------------------

------------------------------------------------------------------------
 * finished run on 2026/09/11 at 13:10:19.863     
------------------------------------------------------------------------
 total:
 * wall-time:     0 d,  0 h,  0 min,  0.029 sec
 *  cpu-time:     0 d,  0 h,  0 min,  0.122 sec
 * ratio c/w:     4.158 speedup
 SCF:
 * wall-time:     0 d,  0 h,  0 min,  0.012 sec
 *  cpu-time:     0 d,  0 h,  0 min,  0.056 sec
 * ratio c/w:     4.673 speedup


-------------------------   --------------------
FINAL SINGLE POINT ENERGY       -15.776344192960
-------------------------   --------------------


-------------
DIPOLE MOMENT
-------------
                                X             Y             Z
Total Dipole Moment    :      0.02000       0.01900       0.00300
                        -----------------------------------------
Magnitude (a.u.)       :      0.02775
Magnitude (Debye)      :      0.07053

                                *** OPTIMIZATION RUN DONE ***

		     ------------------------------
			                   _   
			                  | |  
			  __ _  ___   __ _| |_ 
			 / _` |/ _ \ / _` | __|
			| (_| | (_) | (_| | |_ 
			 \__, |\___/ \__,_|\__|
			 __/ |                
			|___/                 

		      A Global Optimizer Algorithm
		     ------------------------------

Global parameters
-----------------
  GOAT version                               ... default
  Minimum global steps                       ... 3
  Number of base workers                     ... 4
  Split workers by                           ... 2
  Final number of workers                    ... 8
  Number of available CPUs                   ... 8
  Parameter list (worker : temperature)      ...  0 : 2903.97,  1 : 1451.98, 
                                                  2 :  725.99,  3 :  363.00, 
                                                  4 : 2903.97,  5 : 1451.98, 
                                                  6 :  725.99,  7 :  363.00 
  GradComp (mean : sigma)                    ... 1.00 : 0.50
  Number of fragments                        ... 1
  Number of atoms                            ... 15
  Flexibility parameter                      ... 0.75
  Optimizations per global step              ... 168
  Optimizations per worker                   ... 21

Filtering criteria
------------------
  RMSD                                       ... 0.125 Angs (atom. pos.)
  EnDiff                                     ... 0.100 kcal/mol
  RotConst                                   ... 1.00-2.50 %
  Maximum Conf. Energy                       ... 6.000 kcal/mol

Thermodynamics
--------------
  Ensemble temperature                       ... 298.15 K
  Degeneracy of conformers                   ... 1
  *No rotamers will be included in Gconf

------------------------------------------------------------------------------
   Iter  MinTemp     MaxEn       GradComp    NOpt   NProcs    Output
------------------------------------------------------------------------------
List of participating nodes    ...  goat.goat.0.hostnames

   1     1451.98     45.00    1.00 : 0.50      21        1    goat.goat.0.1.out
   0     2903.97     45.00    1.00 : 0.50      21        1    goat.goat.0.0.out
   5     1451.98     45.00    1.00 : 0.50      21        1    goat.goat.0.5.out
   6      725.99     45.00    1.00 : 0.50      21        1    goat.goat.0.6.out
   4     2903.97     45.00    1.00 : 0.50      21        1    goat.goat.0.4.out
   2      725.99     45.00    1.00 : 0.50      21        1    goat.goat.0.2.out
   3      363.00     45.00    1.00 : 0.50      21        1    goat.goat.0.3.out
   7      363.00     45.00    1.00 : 0.50      21        1    goat.goat.0.7.out

			     GOAT Global Iter 1
		Iter    Min En       Sconf       Gconf   
		        Hartree      cal/(molK)  kcal/mol
		=========================================

		   1    -15.776344   1.508       -0.191

List of participating nodes    ...  goat.goat.1.hostnames

   2      725.99     45.00    1.00 : 0.50      21        1    goat.goat.1.2.out
   3      363.00     45.00    1.00 : 0.50      21        1    goat.goat.1.3.out
   6      725.99     45.00    1.00 : 0.50      21        1    goat.goat.1.6.out
   0     2903.97     45.00    1.00 : 0.50      21        1    goat.goat.1.0.out
   4     2903.97     45.00    1.00 : 0.50      21        1    goat.goat.1.4.out
   7      363.00     45.00    1.00 : 0.50      21        1    goat.goat.1.7.out
   1     1451.98     45.00    1.00 : 0.50      21        1    goat.goat.1.1.out
   5     1451.98     45.00    1.00 : 0.50      21        1    goat.goat.1.5.out

			     GOAT Global Iter 2
		Iter    Min En       Sconf       Gconf   
		        Hartree      cal/(molK)  kcal/mol
		=========================================

		   1    -15.776344   1.508       -0.191
		   2    -15.776344   1.966       -0.245

List of participating nodes    ...  goat.goat.2.hostnames

   0     2903.97     45.00    1.00 : 0.50      21        1    goat.goat.2.0.out
   4     2903.97     45.00    1.00 : 0.50      21        1    goat.goat.2.4.out
   1     1451.98     45.00    1.00 : 0.50      21        1    goat.goat.2.1.out
   5     1451.98     45.00    1.00 : 0.50      21        1    goat.goat.2.5.out
   3      363.00     45.00    1.00 : 0.50      21        1    goat.goat.2.3.out
   6      725.99     45.00    1.00 : 0.50      21        1    goat.goat.2.6.out
   7      363.00     45.00    1.00 : 0.50      21        1    goat.goat.2.7.out
   2      725.99     45.00    1.00 : 0.50      21        1    goat.goat.2.2.out

			     GOAT Global Iter 3
		Iter    Min En       Sconf       Gconf   
		        Hartree      cal/(molK)  kcal/mol
		=========================================

		   1    -15.776344   1.508       -0.191
		   2    -15.776344   1.966       -0.245
		   3    -15.776344   1.966       -0.245

		Global minimum found!
		Writing structure to goat.globalminimum.xyz

		# Final ensemble info #
		Conformer     Energy     Degen.   % total   % cumul.  
		              (kcal/mol)
		------------------------------------------------------
		        0     0.000	     1      66.13      66.13
		        1     0.795	     1      17.29      83.43
		        2     1.197	     1       8.77      92.19
		        3     1.266	     1       7.81     100.00

		Conformers below 3 kcal/mol: 4
		Lowest energy conformer    : -15.776344 Eh
		Sconf at 298.15 K          :  1.97 cal/(molK)
		Gconf at 298.15 K          : -0.24 kcal/mol

		Writing final ensemble to goat.finalensemble.xyz
Converting goat.gbw to JSON (see goat.2jsonout) ... FAILED

--------------------------------
SUGGESTED CITATIONS FOR THIS RUN
--------------------------------

Below you find a list of papers that are relevant to this ORCA run
We neither can nor want to force you to cite these papers, but we appreciate if you do
You receive ORCA, which is the product of decades of hard work by many enthusiastic individuals, for free
The only thing we kindly ask in return is that you cite our papers,
We deeply appreciate it, if you show your appreciation for ORCA by not just citing the generic ORCA reference.

Please note that relegating all ORCA citations to the supporting information does *not* help us.
SI sections are not indexed - citations you put there will not count into any citation statistics
But we need these citations in order to attract the funding resources that allow us to do what we are doing

Therefore, if you are a happy ORCA user, please consider citing a few of the papers listed below in the main body of your paper

In addition to the list printed below, the program has created the file goat.bibtex that contains the list in bibtex format
You can import this file easily into all common literature databanks and citation aid programs

It goes without saying that in many instances, there are alternative algorithms to achieve similar
results as the ones you have gotten from ORCA. It is, of course, also the case that in some instances
ORCA just re-implements algorithms worked out by others. We are fully aware of that and we are also
fully appreciative of our colleagues work. Hence this citation list should not be read as indicating
that the listed papers, which are focused on our own work, are the only ones worth citing. It simply
meant to make it easier for users to cite ORCA specific papers. It is not a substitute for doing your
own literature research and citing the relevant literature in a scientifically appropriate manner.

List of essential papers. We consider these as the minimum necessary citations

  1. Bannwarth, C.; Ehlert, S.; Grimme, S.
     GFN2-xTB—An Accurate and Broadly Parametrized Self-Consistent Tight-Binding Quantum Chemical Method with Multipole Electrostatics and Density-Dependent Dispersion Contributions
     J. Chem. Theory Comput. 2019 15(3), 1652-1671
     doi.org/10.1021/acs.jctc.8b01176
  2. Neese, F.
     Software update: the ORCA program system, version 6.0
     WIRES Comput. Molec. Sci. 2025 15(1), e70019
     doi.org/10.1002/wcms.70019
  3. de Souza, B.
     GOAT: A Global Optimization Algorithm for Molecules and Atomic Clusters
     Angewandte Chemie 2025 64(18), e202500393
     doi.org/10.1002/anie.202500393

List of papers to cite with high priority. The work reported in these papers was absolutely
necessary for this run to complete.
Our perspective: the developers of density functionals and basis sets usually get cited in chemistry papers
Good! But without the algorithms to do something with them, the functionals or basis sets would not do anything.
Hence, in our opinion, the algorithm design and method developments papers are equally worthy of getting cited

  1. Bannwarth, C.; Caldeweyher, E.; Ehlert, S.; Hansen, A.; Pracht, P.; Seibert, J.; Spicher, S.; Grimme, S.
     Extended tight-binding quantum chemistry methods
     WIRES Comput. Molec. Sci. 2020 11(2), e1493
     doi.org/10.1002/wcms.1493

List of suggested additional citations. These are papers that are important in the 'surrounding' of 
of this run, or papers that preceded the highly important papers. If you like your results we are grateful for a citation.

  1. Neese, F.
     The ORCA program system
     WIRES Comput. Molec. Sci. 2012 2(1), 73-78
     doi.org/10.1002/wcms.81
  2. Neese, F.
     Software update: the ORCA program system, version 4.0
     WIRES Comput. Molec. Sci. 2018 8(1), 1-6
     doi.org/10.1002/wcms.1327
  3. Neese, F.; Wennmohs, F.; Becker, U.; Riplinger, C.
     The ORCA quantum chemistry program package
     J. Chem. Phys. 2020 152(22), 224108
     doi.org/10.1063/5.0004608
  4. Neese, F.
     Software update: The ORCA program system—Version 5.0
     WIRES Comput. Molec. Sci. 2022 12(1), e1606
     doi.org/10.1002/wcms.1606

List of optional additional citations

  1. Neese, F.
     Approximate second-order SCF convergence for spin unrestricted wavefunctions
     Chem. Phys. Lett. 2000 325(1-3), 93-98
     doi.org/10.1016/s0009-2614(00)00662-x

Timings for individual modules:

Sum of individual times          ...       99.120 sec (=   1.652 min)
Geometry relaxation              ...        0.025 sec (=   0.000 min)   0.0 %
GOAT                             ...       98.562 sec (=   1.643 min)  99.4 %
XTB module                       ...        0.532 sec (=   0.009 min)   0.5 %
                             ****ORCA TERMINATED NORMALLY****
TOTAL RUN TIME: 0 days 0 hours 1 minutes 41 seconds 686 msec
