15
-15.7763442184 converged=true
C  2.46585282023858987088 0.64233623297173547684 -0.18874328815490290512
C  1.25369541912829896013 -0.15759404816775071656 0.15680925879225807162
C  0.07694660388988321109 -0.03804685806388343611 -0.43338830456780480516
C  -1.14128897095055870103 -0.83194974575443458864 -0.08144924317393983926
C  -2.27734830413066458021 0.07793828914957137699 0.38560761999412390688
H  3.27523124573624091482 -0.01574157571280260584 -0.50497198982749491591
H  2.25331744807084044524 1.34647971921451459210 -0.98947521805848270837
H  2.81392786962304919385 1.19594991117205640130 0.68329543836396144929
H  1.38752272876116067302 -0.88248265562685790364 0.95049623573365971119
H  -0.05813850624933843830 0.68872402042406377642 -1.22505667226579451068
H  -1.47360929383352101674 -1.38978083053002543501 -0.96225920162113764977
H  -0.90007807362147418395 -1.55164727327782192567 0.70331647161245158806
H  -3.16101167489447076875 -0.50811519737924282225 0.62796867469871886502
H  -1.97584365913621362587 0.63304130007558845339 1.27115941998762571608
H  -2.53917565263181854718 0.79088871150528061715 -0.39330920151325821088
15
-15.7750776421 converged=true
C  2.40057484716504765387 0.51055639221703985609 -0.00653595057572601244
C  0.94421642964285812383 0.24979205542767227155 0.19860100506643446616
C  0.12113655015265197001 -0.15878023476929889468 -0.75157157941289531866
C  -1.34546037025861187075 -0.43969169687248582656 -0.61829191341505074231
C  -1.92283769899173617723 -0.21946064547964760916 0.77359220115660820571
H  2.99435378051113554321 -0.12634733912261944533 0.64922329801462153043
H  2.69125844401443536924 0.31980805976724480111 -1.03690608099820669175
H  2.63703186708006365180 1.54601051047570448027 0.23887288042209409156
H  0.58798563125997749257 0.42103112361291700205 1.20450335081377102320
H  0.50915450345260437892 -0.32149415053793839459 -1.75092255939083796257
H  -1.88001159815528495756 0.19276041661311840714 -1.33520257057274971402
H  -1.52272206114677133293 -1.47674946823852870637 -0.92303077383864051697
H  -1.43469087292919450505 -0.86614125839989852818 1.49883603758398042949
H  -1.79306368378087066517 0.81465952334244429167 1.08388539652780746536
H  -2.98692576801631393124 -0.44595328803573414111 0.77494725861877211681
15
-15.7744364001 converged=true
C  2.51134171585389154302 0.59663431256566901162 -0.39449041318148375668
C  1.33400664429372550757 -0.27968530777536165788 -0.12161658218279282340
C  0.08408927655173062399 0.14368266565097215226 -0.03563292191043838930
C  -1.09829032668922610405 -0.74234089651672563459 0.23845374649890757612
C  -2.40415490610828541662 0.04071637996146703492 0.29359056122702104075
H  3.22752144228888582234 0.53364824708193814295 0.42490363651852874893
H  3.02131472572591119885 0.27347262074674055787 -1.30206606001137670248
H  2.20600989463919416878 1.63332559571006585841 -0.51439070978267664724
H  1.55827531438128197294 -1.33138295696809150215 0.00939221295126615140
H  -0.13271885497246296848 1.19571674871491828718 -0.16800497963172958404
H  -1.16608666067577293468 -1.50840623571268483971 -0.54011613008244563350
H  -0.94772954571174006233 -1.26556277763381186396 1.18744674946707817753
H  -2.58691458557806397422 0.54389228192829319752 -0.65366833515186051340
H  -3.24103251051217045031 -0.62445545193360585401 0.49531690107040027282
H  -2.36563162348688527103 0.79074477418020749919 1.08088232420157814850
15
-15.7730360095 converged=true
C  2.34663206703411830745 0.71499584300554175353 -0.13751552792103136080
C  0.89519773123468904252 0.42798885311173912038 0.11088951694721881081
C  0.20392279579364813724 -0.47046499642706895994 -0.57036982892022070057
C  -1.24185738018382019199 -0.82330828337030947939 -0.39374889831166154375
C  -1.96937721423468325987 -0.04664019653688879219 0.69559937332201760007
H  2.94661022845387732261 -0.18323521640827958312 0.00508202364377946091
H  2.50201024563128004985 1.05500091804929807537 -1.16097046977019502378
H  2.71265549329383004462 1.48298000598300694364 0.53831829986916668318
H  0.42525019417407311506 1.00489707275041917356 0.89323758008190756730
H  0.70236096472488163123 -1.03499141370349834190 -1.35064643187692490223
H  -1.75049018778069709334 -0.66544370932050389555 -1.35098278269475668978
H  -1.30749387065466349256 -1.89523732043351622600 -0.17808647331408916648
H  -3.00722463093951031254 -0.36799513382517029525 0.75133551994587455258
H  -1.50592675098518369303 -0.21830962647123841602 1.66425216880394000185
H  -1.95226968556184155013 1.01976320359645322711 0.48360593019495490275
