15
Coordinates from ORCA-job goat E -15.776344192960
  C           2.46587095961703      0.64237215612684     -0.18875608580714
  C           1.25371861200035     -0.15755915707630      0.15692790396682
  C           0.07701786708079     -0.03805981543944     -0.43335750220484
  C          -1.14129681450608     -0.83187029738786     -0.08153062998857
  C          -2.27738321791472      0.07790761858059      0.38570931051571
  H           3.27516687864934     -0.01587608706081     -0.50486893860820
  H           2.25336314383826      1.34631981668272     -0.98964420886002
  H           2.81402458410818      1.19605012859518      0.68319156890118
  H           1.38756080483469     -0.88230122308755      0.95073472641845
  H          -0.05793217175894      0.68864054542902     -1.22513159059256
  H          -1.47378646464134     -1.38947059738197     -0.96240994225987
  H          -0.90000387560997     -1.55168878865367      0.70310415688251
  H          -3.16099879674925     -0.50826027654113      0.62797201872622
  H          -1.97597700299698      0.63299698179436      1.27128082415607
  H          -2.53934450595138      0.79079899542003     -0.39322161124576
