15
-15.7763441930 converged=true
C  2.46585359333974807328 0.64235159584745771255 -0.18874678715068463064
C  1.25369802693909826452 -0.15757585465900883492 0.15685921917446041252
C  0.07697090090582485444 -0.03805767547150853969 -0.43338299777352973230
C  -1.14129308251943051289 -0.83192580015966244300 -0.08148498214588877075
C  -2.27735183806188423716 0.07792758401612825958 0.38564903065942479632
H  3.27520391157486345790 -0.01579372513732146127 -0.50492353404657119853
H  2.25332770509339486154 1.34641329033349044231 -0.98954545787160064219
H  2.81395369340222689658 1.19600047459871894340 0.68325371731239636919
H  1.38753230465945631700 -0.88240213771252296038 0.95059832936070487452
H  -0.05805775577027743467 0.68867987217034776215 -1.22509716975427518371
H  -1.47368523013756802520 -1.38966206733676056473 -0.96232431091083259211
H  -0.90005247818299749518 -1.55167436819330495368 0.70322772882156869834
H  -3.16100338742061071073 -0.50816532589737850589 0.62796562668750532943
H  -1.97587902059085296358 0.63301207862440400653 1.27121605398039383417
H  -2.53921734323098657882 0.79087205897691292833 -0.39326446634308825923
15
-15.7750776155 converged=true
C  2.33249480932726616089 0.74351657917883240412 -0.16933558994440572887
C  0.88195407629598199239 0.46132563249170632780 0.04836077581927937519
C  0.24932481479015339287 -0.59330535239249293511 -0.43625392944152519004
C  -1.19834745190282188076 -0.93954302968125014139 -0.25921660812560992637
C  -2.00351641021496496009 0.04990236481417620329 0.57269771729273943883
H  2.79609789808319320059 -0.03223879191130538113 -0.77416891783138630512
H  2.45945638031534397072 1.70271362438501028258 -0.67147014672232629984
H  2.85352978155146352890 0.80147159860984507063 0.78640043440765783345
H  0.35989542381193140308 1.19579441748129844392 0.64513704259636028837
H  0.80271883205152905205 -1.31116466699335965096 -1.03132113938969971478
H  -1.65098779782801075022 -1.02905344262946063516 -1.25263316174091343669
H  -1.25747710112785604508 -1.93106794019083038982 0.20224165824600029429
H  -3.03703177433739535118 -0.28135141019620929503 0.64738583037682639887
H  -1.59580902777103617041 0.12711915151225214315 1.57792277877266307051
H  -1.99230245304476016877 1.03588126552178283468 0.11425325568431564383
15
-15.7743271668 converged=true
C  2.45631915781339849048 0.64684251640361178914 -0.28170917834433562010
C  1.26183023569471997050 -0.17643798271903279873 0.09674075309590522698
C  0.05942859419854021330 -0.02457770067274794509 -0.43263682004678621906
C  -1.14595517423919002198 -0.82821551802122417296 -0.06048970505638236878
C  -2.25193564351951680536 0.06395834746985812336 0.50327532845714584298
H  3.33412739545678427078 0.34050131667273741964 0.28042236073888171521
H  2.67324049618051295951 0.54233524154265932982 -1.34417307680595521369
H  2.27177764219238831345 1.70255649072591253024 -0.08570894798763012412
H  1.42129954927778179297 -0.93827335507177556106 0.84867307213006892841
H  -0.10635866401327566388 0.73853625770778408288 -1.18330881326815862131
H  -1.52430583563991128848 -1.34219492940045315166 -0.94937208691576802089
H  -0.87238993139446852076 -1.58528011921521883032 0.67714106573212029527
H  -2.54597887720952620327 0.81419132870719357342 -0.22762006157776282222
H  -3.12690828665909403838 -0.52880792539174503730 0.76033704155705883476
H  -1.90419065813912347096 0.57486603126243207562 1.39842906829158697413
