15
-15.7763442276 converged=true
C  2.46585892914612392346 0.64232362643419049775 -0.18874396245308175390
C  1.25370061798266485553 -0.15760905513491377250 0.15677529018766186986
C  0.07693277460616219920 -0.03802958391668156274 -0.43337943968772646430
C  -1.14128452448861272828 -0.83195714966349465502 -0.08141933947165645724
C  -2.27735677459522722899 0.07794300414710730873 0.38557626932415967058
H  3.27525038997345419034 -0.01571212561632027646 -0.50501680488071509778
H  2.25331612906294065368 1.34652643516771064469 -0.98942614590029276389
H  2.81392675350757759389 1.19590386353483979498 0.68332226845020016537
H  1.38752502638902575072 -0.88254773660301899518 0.95041920936622292793
H  -0.05819471055315047353 0.68877143192292866747 -1.22501008102980457615
H  -1.47354943481108802139 -1.38985566499292478859 -0.96220958638399389784
H  -0.90009097806664972730 -1.55161688774679418223 0.70338503691884068925
H  -3.16102102994549749582 -0.50809332389193073709 0.62797054136440255689
H  -1.97584128668802394557 0.63307320072749151407 1.27111130059279231475
H  -2.53917188151969464016 0.79087996563180207321 -0.39335455639702537889
15
-15.7750776826 converged=true
C  2.34034423582491113436 0.71826101682017440275 -0.17126470056550061050
C  0.88275478148224617581 0.46143687757855217368 0.03017968849850337365
C  0.25821268573557165649 -0.63166005678065317852 -0.37274582879734002860
C  -1.19585878964306746575 -0.95576231725592475374 -0.20586858938597477064
C  -2.01800287199471428679 0.10766518707953041945 0.51002902337254385490
H  2.48642838320488079873 1.62737195407609225306 -0.75480957445082896839
H  2.83500239934543030174 0.86160515699250483923 0.78947868372713703167
H  2.81622047316345280876 -0.11064837031386305644 -0.68988829787676575478
H  0.34828987437609204569 1.24888383618451026535 0.54235622598304777942
H  0.82355227907091466122 -1.40292642245140974921 -0.88388044578586610900
H  -1.62158450955706134877 -1.13312053408194235438 -1.19938002824115086398
H  -1.27368280015649903980 -1.90139825644759130618 0.34135000310051771821
H  -3.05497328308055626778 -0.21245807172007574737 0.58588005123059916368
H  -1.63750907470678175315 0.27528384675835315676 1.51482907436906333309
H  -1.98919378306482030894 1.04746615356173067291 -0.03626528517800164247
15
-15.7743264426 converged=true
C  2.44792139148621723521 0.67047550491558061125 -0.29922617183924149487
C  1.25184593615210792983 -0.04671229364259907313 0.25019571281601449275
C  0.10145918239627321755 -0.16986739952011456478 -0.39072820711260325410
C  -1.10513301177232059480 -0.87186683303358603059 0.14630584905734531076
C  -2.29086826672858956400 0.08477653083896637132 0.27148025579798984452
H  2.76873733509282748955 0.22005136546968320777 -1.23794892753736274216
H  2.21114716746780404222 1.71497058850804950936 -0.49961187815223717656
H  3.27873294102414769569 0.63516457893133326795 0.40004480776294593092
H  1.36290890798569996889 -0.48663888193156135120 1.23276503452940278116
H  -0.01780522264790007289 0.27061592830964403822 -1.37315762857741807679
H  -1.37787989192474924494 -1.68722502598617762892 -0.53064358557607826938
H  -0.87715723736621020734 -1.30473021138262246232 1.12241813524265610091
H  -2.54141769855966925817 0.51027671656047313142 -0.69789057250830233148
H  -3.16424754562437060557 -0.43799553272678987126 0.65487061156881121171
H  -2.04824398698125653695 0.89870496468971405868 0.95112656452807309293
15
-15.7736620827 converged=true
C  2.35962785659287810347 0.68921379846063468566 -0.13569597040258113418
C  1.00758580462004521117 0.16221242478143074739 0.21375608376962157431
C  0.14147330857070897214 -0.31841996747196288364 -0.66257130412990805635
C  -1.22257061034830982749 -0.85870006990122094148 -0.33230238194043276723
C  -2.01996515441271240476 0.04125917386538355269 0.60976602176001293287
H  2.44976192388890146034 1.73147449491905902619 0.17068194415853965573
H  3.13145282366408173047 0.12495458614660454044 0.38783214215170891404
H  2.54074820532884348978 0.62167695673721923288 -1.20580498316787654289
H  0.76129048082081485216 0.19440925282930962559 1.26684900624863705509
H  0.41728614938978803028 -0.34766371765090164914 -1.70935615916592786867
H  -1.78600627287245838914 -0.98936307648669674641 -1.25819151453152588971
H  -1.11670242776267447660 -1.84768083102036095866 0.12595821882034988204
H  -3.01769345514657860718 -0.36483411209156785260 0.76198214173179878994
H  -1.53390188261534121672 0.12143957037251190689 1.57807125488019184267
H  -2.11238674971801287938 1.04002151651055507742 0.18902549981736860296
