15
Coordinates from ORCA-job goat E -15.764787288920
  C       2.405620      0.652760     -0.132651
  C       1.224927     -0.227954      0.177170
  C       0.045583     -0.022693     -0.403793
  C      -1.152750     -0.865968     -0.130875
  C      -2.203686      0.098246      0.424440
  H       3.320520      0.025617     -0.257093
  H       2.189824      1.111115     -1.120534
  H       2.522465      1.433797      0.658989
  H       1.385414     -1.029050      0.890764
  H      -0.055499      0.787032     -1.103685
  H      -1.518765     -1.237140     -1.120870
  H      -0.942806     -1.696408      0.544977
  H      -3.012207     -0.460450      0.936228
  H      -1.650180      0.773250      1.111362
  H      -2.558462      0.657848     -0.474431
15
Coordinates from ORCA-job goat E -15.773198832720
  C       2.439152      0.646678     -0.145307
  C       1.245147     -0.219997      0.148746
  C       0.067710     -0.030516     -0.431877
  C      -1.152583     -0.848328     -0.135124
  C      -2.246452      0.090890      0.429206
  H       3.333619      0.031992     -0.239065
  H       2.276407      1.139951     -1.103849
  H       2.570051      1.389477      0.639210
  H       1.388939     -1.001854      0.880352
  H      -0.039073      0.764239     -1.154228
  H      -1.511961     -1.264357     -1.085642
  H      -0.928187     -1.660488      0.550487
  H      -3.040517     -0.474519      0.905454
  H      -1.772746      0.759513      1.144921
  H      -2.629506      0.677317     -0.403283
15
Coordinates from ORCA-job goat E -15.775056558980
  C       2.455671      0.639900     -0.159472
  C       1.250176     -0.202600      0.136885
  C       0.074014     -0.029617     -0.443406
  C      -1.152366     -0.832532     -0.133627
  C      -2.260637      0.082691      0.424069
  H       3.338932      0.015771     -0.248873
  H       2.316545      1.173351     -1.095046
  H       2.616996      1.356518      0.637957
  H       1.384052     -0.971483      0.884488
  H      -0.042229      0.747632     -1.187101
  H      -1.511271     -1.289516     -1.057452
  H      -0.917446     -1.624214      0.574353
  H      -3.063511     -0.499796      0.855580
  H      -1.839931      0.730434      1.185664
  H      -2.648995      0.703459     -0.374020
15
Coordinates from ORCA-job goat E -15.775865156030
  C       2.464680      0.635867     -0.173705
  C       1.252699     -0.184839      0.130151
  C       0.076151     -0.030603     -0.450843
  C      -1.151122     -0.822621     -0.125266
  C      -2.266166      0.077391      0.416126
  H       3.338568     -0.002210     -0.283599
  H       2.330606      1.213898     -1.083383
  H       2.664758      1.323893      0.646334
  H       1.380967     -0.939291      0.895624
  H      -0.051026      0.727185     -1.214935
  H      -1.509387     -1.322276     -1.027878
  H      -0.908050     -1.590063      0.611184
  H      -3.096005     -0.518653      0.783049
  H      -1.893599      0.687336      1.235289
  H      -2.633075      0.744987     -0.358148
15
Coordinates from ORCA-job goat E -15.776102473220
  C       2.465931      0.636093     -0.182101
  C       1.252963     -0.174202      0.132236
  C       0.075443     -0.032551     -0.450267
  C      -1.148933     -0.822419     -0.113371
  C      -2.267184      0.076302      0.409170
  H       3.330195     -0.010501     -0.329304
  H       2.318713      1.245046     -1.070315
  H       2.698849      1.298728      0.653612
  H       1.381239     -0.918667      0.908830
  H      -0.057621      0.712372     -1.226124
  H      -1.502874     -1.346707     -1.005772
  H      -0.903572     -1.572921      0.641944
  H      -3.123028     -0.519925      0.718764
  H      -1.924598      0.651318      1.267639
  H      -2.595524      0.778033     -0.354940
15
Coordinates from ORCA-job goat E -15.776243061700
  C       2.465217      0.638320     -0.188483
  C       1.252975     -0.166207      0.138635
  C       0.074662     -0.035629     -0.445890
  C      -1.145943     -0.826432     -0.098539
  C      -2.268729      0.077013      0.401679
  H       3.315519     -0.014106     -0.388204
  H       2.295183      1.278133     -1.051344
  H       2.734939      1.270013      0.661115
  H       1.383311     -0.901171      0.924414
  H      -0.061999      0.698684     -1.230703
  H      -1.492632     -1.369322     -0.983907
  H      -0.900859     -1.561737      0.672215
  H      -3.148471     -0.512783      0.655052
  H      -1.952733      0.619848      1.291263
  H      -2.550438      0.805376     -0.357302
15
Coordinates from ORCA-job goat E -15.776307175490
  C       2.464490      0.640743     -0.191271
  C       1.253185     -0.162073      0.146079
  C       0.074809     -0.037953     -0.440309
  C      -1.143428     -0.830785     -0.087322
  C      -2.271347      0.078247      0.395739
  H       3.300169     -0.014136     -0.438418
  H       2.273423      1.304096     -1.031775
  H       2.764746      1.244679      0.667018
  H       1.385768     -0.890872      0.936908
  H      -0.062454      0.690762     -1.229721
  H      -1.483304     -1.382536     -0.969802
  H      -0.899933     -1.557133      0.691450
  H      -3.163136     -0.505149      0.617846
  H      -1.970371      0.606665      1.298408
  H      -2.522617      0.815443     -0.364829
15
Coordinates from ORCA-job goat E -15.776327775210
  C       2.464633      0.641994     -0.191230
  C       1.253539     -0.160653      0.150965
  C       0.075617     -0.038654     -0.436703
  C      -1.142226     -0.832547     -0.082923
  C      -2.273819      0.078747      0.392346
  H       3.290370     -0.013831     -0.466174
  H       2.262429      1.319020     -1.017819
  H       2.782872      1.228169      0.671414
  H       1.387146     -0.887034      0.943407
  H      -0.060710      0.688675     -1.227433
  H      -1.478524     -1.386249     -0.964991
  H      -0.899868     -1.555959      0.698010
  H      -3.166599     -0.503004      0.611072
  H      -1.975917      0.609840      1.293674
  H      -2.518942      0.811485     -0.373615
15
Coordinates from ORCA-job goat E -15.776337074090
  C       2.465156      0.642498     -0.190408
  C       1.253821     -0.159618      0.154148
  C       0.076447     -0.038615     -0.434587
  C      -1.141653     -0.832724     -0.081501
  C      -2.275758      0.078639      0.389753
  H       3.283418     -0.014301     -0.484270
  H       2.256997      1.330315     -1.006279
  H       2.796565      1.214842      0.675753
  H       1.387753     -0.884866      0.947338
  H      -0.058935      0.688373     -1.225868
  H      -1.476075     -1.387296     -0.963376
  H      -0.899879     -1.554768      0.700507
  H      -3.165742     -0.504115      0.615200
  H      -1.977235      0.618098      1.285511
  H      -2.524880      0.803538     -0.381920
15
Coordinates from ORCA-job goat E -15.776342507780
  C       2.465725      0.642617     -0.189386
  C       1.253934     -0.158387      0.156501
  C       0.077077     -0.038303     -0.433283
  C      -1.141320     -0.832256     -0.081170
  C      -2.277219      0.078230      0.387198
  H       3.277429     -0.015240     -0.499153
  H       2.253814      1.340956     -0.995177
  H       2.808925      1.202124      0.680369
  H       1.387921     -0.882970      0.950255
  H      -0.057670      0.688468     -1.224994
  H      -1.474442     -1.388179     -0.962617
  H      -0.899874     -1.553032      0.702176
  H      -3.163217     -0.506568      0.622713
  H      -1.977158      0.627738      1.276320
  H      -2.533925      0.794803     -0.389753
15
Coordinates from ORCA-job goat E -15.776343974340
  C       2.465906      0.642481     -0.188870
  C       1.253829     -0.157704      0.157085
  C       0.077146     -0.038097     -0.433158
  C      -1.141270     -0.831898     -0.081403
  C      -2.277519      0.077956      0.385986
  H       3.275265     -0.015812     -0.504474
  H       2.253224      1.345557     -0.990400
  H       2.813675      1.196772      0.682662
  H       1.387733     -0.882266      0.950975
  H      -0.057610      0.688588     -1.224992
  H      -1.473913     -1.388962     -0.962463
  H      -0.899920     -1.551964      0.702873
  H      -3.161472     -0.508027      0.627022
  H      -1.976460      0.632257      1.272027
  H      -2.538613      0.791120     -0.392869
15
Coordinates from ORCA-job goat E -15.776344192960
  C       2.465871      0.642372     -0.188756
  C       1.253719     -0.157559      0.156928
  C       0.077018     -0.038060     -0.433358
  C      -1.141297     -0.831870     -0.081531
  C      -2.277383      0.077908      0.385709
  H       3.275167     -0.015876     -0.504869
  H       2.253363      1.346320     -0.989644
  H       2.814025      1.196050      0.683192
  H       1.387561     -0.882301      0.950735
  H      -0.057932      0.688641     -1.225132
  H      -1.473786     -1.389471     -0.962410
  H      -0.900004     -1.551689      0.703104
  H      -3.160999     -0.508260      0.627972
  H      -1.975977      0.632997      1.271281
  H      -2.539345      0.790799     -0.393222
