17
Coordinates from ORCA-job optts E -268.749948029564
  C           2.34412749630291     -3.95003957332443      1.90630413567310
  C           1.49518797120428     -2.91623383715473      1.17395254367593
  C           2.01186651796565     -1.78289990676308      0.62610116576410
  C           1.22993652189944     -0.77028882606943     -0.12657320972571
  C          -0.30332872944651     -0.80796694688154      0.02836437253281
  H           3.38444393066475     -3.64607847533129      1.92411675427264
  H           2.27636177109175     -4.91880688379875      1.41698700266056
  H           2.00217602289054     -4.07437902476029      2.93085481681625
  H           0.43721009292565     -3.11910354902535      1.10894312212029
  H           3.07514729446876     -1.60445689819196      0.70220875378569
  H           1.47144660378936     -0.99741979983291     -1.40741973687931
  H           1.63911180818146      0.23132668808959     -0.04097499827462
  H          -0.76720735812815     -0.03531226631660     -0.57535782055771
  H          -0.70135345533580     -1.76890109072273     -0.27687147730678
  H          -0.58270939586827     -0.64370454969064      1.06489534271172
  O           1.48097224439304     -1.17356433602609     -2.61447680178309
  H           0.51746866300111     -1.35165672419971     -2.76339496548586
