17
Coordinates from ORCA-job optts E -268.741130339673
  C       2.366082     -3.918294      1.876313
  C       1.500722     -2.925135      1.192410
  C       1.958261     -1.780362      0.642603
  C       1.176858     -0.802343     -0.049056
  C      -0.322954     -0.790959      0.072467
  H       3.404878     -3.598350      1.885570
  H       2.299111     -4.881644      1.368642
  H       2.031914     -4.073940      2.903104
  H       0.447557     -3.164065      1.160291
  H       3.023785     -1.589665      0.678240
  H       1.382657     -1.152618     -1.340228
  H       1.626853      0.185088     -0.097097
  H      -0.753178     -0.021017     -0.563792
  H      -0.751763     -1.750652     -0.206203
  H      -0.615145     -0.578042      1.102865
  O       1.513090     -1.421383     -2.571161
  H       0.722130     -1.066105     -2.977309
17
Coordinates from ORCA-job optts E -268.747168518089
  C       2.368950     -3.937100      1.887804
  C       1.503040     -2.925040      1.190313
  C       1.973852     -1.778108      0.641226
  C       1.188709     -0.789775     -0.071100
  C      -0.327579     -0.785878      0.056276
  H       3.407215     -3.623634      1.903612
  H       2.304793     -4.900383      1.383610
  H       2.033182     -4.090060      2.912099
  H       0.448884     -3.155290      1.147090
  H       3.037491     -1.588756      0.691806
  H       1.401947     -1.120535     -1.361383
  H       1.632612      0.199759     -0.098828
  H      -0.763828     -0.017540     -0.574148
  H      -0.751053     -1.744440     -0.226488
  H      -0.621606     -0.580737      1.084299
  O       1.525944     -1.363558     -2.561718
  H       0.648303     -1.128408     -2.926811
17
Coordinates from ORCA-job optts E -268.748419244006
  C       2.375814     -3.944438      1.907212
  C       1.504722     -2.927383      1.201496
  C       1.978357     -1.787841      0.633320
  C       1.187624     -0.801156     -0.094564
  C      -0.336233     -0.794930      0.049215
  H       3.414917     -3.638926      1.910385
  H       2.303238     -4.913320      1.417378
  H       2.051451     -4.083338      2.935720
  H       0.449243     -3.151004      1.167215
  H       3.041559     -1.600840      0.679663
  H       1.392058     -1.134395     -1.371684
  H       1.630010      0.187911     -0.126116
  H      -0.779187     -0.034070     -0.583100
  H      -0.762616     -1.754521     -0.220291
  H      -0.622015     -0.580971      1.075683
  O       1.506140     -1.379986     -2.561557
  H       0.675774     -0.990276     -2.942315
17
Coordinates from ORCA-job optts E -268.749580195376
  C       2.372642     -3.944429      1.921690
  C       1.502053     -2.926506      1.207413
  C       1.984057     -1.794618      0.626682
  C       1.189597     -0.810835     -0.114901
  C      -0.335588     -0.810186      0.052119
  H       3.413596     -3.642511      1.916050
  H       2.294214     -4.917669      1.441658
  H       2.053574     -4.069199      2.953889
  H       0.444586     -3.143085      1.176122
  H       3.048149     -1.609516      0.671981
  H       1.387829     -1.142100     -1.402614
  H       1.626148      0.181828     -0.135074
  H      -0.790798     -0.053335     -0.577221
  H      -0.759295     -1.773612     -0.209955
  H      -0.607551     -0.595431      1.082384
  O       1.485355     -1.380291     -2.582352
  H       0.702289     -0.897989     -2.950213
17
Coordinates from ORCA-job optts E -268.749209341333
  C       2.371650     -3.949547      1.911770
  C       1.502414     -2.924050      1.202763
  C       1.984582     -1.786607      0.632032
  C       1.193736     -0.800799     -0.113199
  C      -0.333556     -0.800597      0.048181
  H       3.413336     -3.648321      1.913721
  H       2.295944     -4.919150      1.424100
  H       2.048869     -4.083754      2.941742
  H       0.444925     -3.142081      1.164520
  H       3.047833     -1.597441      0.689492
  H       1.402313     -1.117139     -1.389242
  H       1.628353      0.192852     -0.124664
  H      -0.785167     -0.041872     -0.582238
  H      -0.757581     -1.763621     -0.216303
  H      -0.612614     -0.586823      1.077059
  O       1.513764     -1.349450     -2.576601
  H       0.652057     -1.011085     -2.925475
17
Coordinates from ORCA-job optts E -268.749683563242
  C       2.357948     -3.950975      1.912244
  C       1.498963     -2.921794      1.188353
  C       1.997272     -1.783716      0.629706
  C       1.208888     -0.790455     -0.128635
  C      -0.320703     -0.804378      0.049283
  H       3.397951     -3.646616      1.928799
  H       2.291826     -4.919022      1.420999
  H       2.020999     -4.083476      2.937541
  H       0.442184     -3.134689      1.132041
  H       3.058850     -1.595036      0.704421
  H       1.427110     -1.067706     -1.409280
  H       1.630871      0.208707     -0.094698
  H      -0.783749     -0.043214     -0.569039
  H      -0.736560     -1.768097     -0.221775
  H      -0.589304     -0.605698      1.082697
  O       1.526615     -1.269095     -2.604031
  H       0.581698     -1.154227     -2.880968
17
Coordinates from ORCA-job optts E -268.749831114807
  C       2.348843     -3.949577      1.911330
  C       1.496351     -2.920721      1.176991
  C       2.005902     -1.784465      0.625545
  C       1.218852     -0.781868     -0.132877
  C      -0.312280     -0.806536      0.046027
  H       3.388049     -3.641412      1.934583
  H       2.288264     -4.917778      1.419710
  H       2.003601     -4.078545      2.934258
  H       0.439355     -3.129622      1.111457
  H       3.068242     -1.600335      0.703870
  H       1.441430     -1.033391     -1.415664
  H       1.634636      0.218797     -0.070891
  H      -0.780853     -0.040845     -0.563130
  H      -0.721637     -1.769900     -0.236507
  H      -0.576227     -0.622817      1.083551
  O       1.516777     -1.214181     -2.614417
  H       0.551553     -1.256290     -2.836177
17
Coordinates from ORCA-job optts E -268.749905517257
  C       2.345236     -3.949626      1.907847
  C       1.494521     -2.918728      1.173295
  C       2.009119     -1.783996      0.624771
  C       1.223568     -0.774553     -0.129561
  C      -0.308754     -0.805561      0.041302
  H       3.384145     -3.641429      1.929817
  H       2.283479     -4.917712      1.416357
  H       2.000270     -4.076816      2.930972
  H       0.437264     -3.124369      1.106954
  H       3.071952     -1.603656      0.701515
  H       1.451456     -1.011823     -1.415366
  H       1.636745      0.226211     -0.053519
  H      -0.776684     -0.035991     -0.563101
  H      -0.713420     -1.767272     -0.252253
  H      -0.575634     -0.632645      1.079644
  O       1.504877     -1.181869     -2.617036
  H       0.542717     -1.329651     -2.803980
17
Coordinates from ORCA-job optts E -268.749581188994
  C       2.351093     -3.949624      1.896004
  C       1.496550     -2.919047      1.168943
  C       1.994704     -1.770045      0.628491
  C       1.203755     -0.776811     -0.130181
  C      -0.323403     -0.787410      0.078430
  H       3.387999     -3.637987      1.936173
  H       2.302178     -4.910171      1.388173
  H       1.996965     -4.099542      2.912866
  H       0.442594     -3.138278      1.093524
  H       3.053970     -1.576816      0.718703
  H       1.402578     -1.064288     -1.422717
  H       1.623961      0.223214     -0.096485
  H      -0.800518     -0.027200     -0.529695
  H      -0.744193     -1.751254     -0.183812
  H      -0.569711     -0.589185      1.117078
  O       1.568049     -1.257331     -2.598740
  H       0.624286     -1.297710     -2.899097
17
Coordinates from ORCA-job optts E -268.749971636902
  C       2.345536     -3.949923      1.906557
  C       1.494533     -2.917722      1.174321
  C       2.008591     -1.782552      0.625861
  C       1.223903     -0.773634     -0.127728
  C      -0.308364     -0.805227      0.039954
  H       3.384854     -3.642964      1.927430
  H       2.282109     -4.917678      1.414616
  H       2.001902     -4.077872      2.930058
  H       0.437098     -3.123224      1.108685
  H       3.071383     -1.601820      0.702785
  H       1.454114     -1.012863     -1.416563
  H       1.636805      0.227331     -0.053037
  H      -0.775270     -0.035590     -0.565138
  H      -0.711946     -1.767035     -0.255120
  H      -0.578282     -0.632971      1.077683
  O       1.503105     -1.184099     -2.613758
  H       0.540787     -1.331641     -2.798946
17
Coordinates from ORCA-job optts E -268.750216190827
  C       2.343949     -3.949171      1.911521
  C       1.492887     -2.916190      1.179185
  C       2.014536     -1.793094      0.619916
  C       1.232190     -0.772761     -0.126971
  C      -0.301843     -0.815684      0.014623
  H       3.385205     -3.648960      1.911222
  H       2.264389     -4.922982      1.434442
  H       2.014546     -4.058722      2.941788
  H       0.432837     -3.110654      1.127964
  H       3.079843     -1.622377      0.679280
  H       1.481853     -0.974293     -1.390920
  H       1.641335      0.227432     -0.023737
  H      -0.760216     -0.036411     -0.584303
  H      -0.695054     -1.773605     -0.305491
  H      -0.588612     -0.663449      1.050718
  O       1.467281     -1.145530     -2.618863
  H       0.505733     -1.353035     -2.742716
17
Coordinates from ORCA-job optts E -268.749938447635
  C       2.344597     -3.949797      1.907547
  C       1.494304     -2.916540      1.175735
  C       2.010804     -1.784698      0.624842
  C       1.227532     -0.772312     -0.127037
  C      -0.305406     -0.808659      0.031663
  H       3.384917     -3.645612      1.922659
  H       2.275825     -4.919119      1.419487
  H       2.004810     -4.072773      2.932973
  H       0.435973     -3.118591      1.113701
  H       3.074424     -1.606807      0.697623
  H       1.465424     -1.000239     -1.408857
  H       1.638211      0.228815     -0.042896
  H      -0.770073     -0.036345     -0.571933
  H      -0.704804     -1.769693     -0.271529
  H      -0.581864     -0.642947      1.068779
  O       1.489672     -1.172800     -2.616475
  H       0.526512     -1.341368     -2.778625
17
Coordinates from ORCA-job optts E -268.749942292020
  C       2.344515     -3.949883      1.907070
  C       1.494661     -2.916501      1.175052
  C       2.011090     -1.784054      0.625157
  C       1.228260     -0.771709     -0.127061
  C      -0.304781     -0.808311      0.030591
  H       3.384776     -3.645680      1.923356
  H       2.276308     -4.918954      1.418425
  H       2.003819     -4.073551      2.932113
  H       0.436493     -3.118927      1.111971
  H       3.074545     -1.605849      0.699185
  H       1.466920     -1.000035     -1.408210
  H       1.638560      0.229591     -0.043049
  H      -0.769251     -0.036148     -0.573282
  H      -0.703797     -1.769398     -0.272869
  H      -0.582130     -0.642677      1.067448
  O       1.487154     -1.173646     -2.614792
  H       0.523718     -1.343754     -2.773448
17
Coordinates from ORCA-job optts E -268.749944763042
  C       2.344388     -3.949945      1.906908
  C       1.494845     -2.916403      1.174806
  C       2.011355     -1.783693      0.625547
  C       1.228857     -0.771258     -0.126841
  C      -0.304262     -0.808260      0.029874
  H       3.384684     -3.645853      1.923693
  H       2.276297     -4.918913      1.418037
  H       2.003288     -4.073844      2.931790
  H       0.436721     -3.118947      1.111129
  H       3.074761     -1.605412      0.700258
  H       1.468559     -0.999228     -1.408170
  H       1.638738      0.230149     -0.042225
  H      -0.768556     -0.035950     -0.573968
  H      -0.702891     -1.769317     -0.274207
  H      -0.582356     -0.643104      1.066613
  O       1.484992     -1.173570     -2.615119
  H       0.521438     -1.345938     -2.770467
17
Coordinates from ORCA-job optts E -268.749946307520
  C       2.344283     -3.949981      1.906677
  C       1.494994     -2.916327      1.174474
  C       2.011581     -1.783382      0.625760
  C       1.229332     -0.770872     -0.126760
  C      -0.303852     -0.808173      0.029163
  H       3.384589     -3.645949      1.923886
  H       2.276322     -4.918866      1.417621
  H       2.002831     -4.074063      2.931423
  H       0.436929     -3.118992      1.110264
  H       3.074940     -1.605051      0.701015
  H       1.469794     -0.998524     -1.407775
  H       1.638920      0.230627     -0.041751
  H      -0.767966     -0.035746     -0.574666
  H      -0.702198     -1.769194     -0.275391
  H      -0.582528     -0.643367      1.065799
  O       1.483243     -1.173567     -2.614732
  H       0.519644     -1.348060     -2.767348
17
Coordinates from ORCA-job optts E -268.749947323956
  C       2.344198     -3.950016      1.906483
  C       1.495105     -2.916274      1.174202
  C       2.011741     -1.783112      0.625965
  C       1.229674     -0.770553     -0.126652
  C      -0.303556     -0.808067      0.028723
  H       3.384508     -3.646022      1.924040
  H       2.276352     -4.918830      1.417271
  H       2.002460     -4.074254      2.931116
  H       0.437088     -3.119053      1.109545
  H       3.075056     -1.604716      0.701697
  H       1.470731     -0.997945     -1.407606
  H       1.639026      0.231012     -0.041321
  H      -0.767543     -0.035523     -0.575056
  H      -0.701716     -1.769045     -0.276200
  H      -0.582628     -0.643553      1.065297
  O       1.481966     -1.173579     -2.614640
  H       0.518396     -1.349955     -2.765204
17
Coordinates from ORCA-job optts E -268.749948029564
  C       2.344127     -3.950040      1.906304
  C       1.495188     -2.916234      1.173953
  C       2.011867     -1.782900      0.626101
  C       1.229937     -0.770289     -0.126573
  C      -0.303329     -0.807967      0.028364
  H       3.384444     -3.646078      1.924117
  H       2.276362     -4.918807      1.416987
  H       2.002176     -4.074379      2.930855
  H       0.437210     -3.119104      1.108943
  H       3.075147     -1.604457      0.702209
  H       1.471447     -0.997420     -1.407420
  H       1.639112      0.231327     -0.040975
  H      -0.767207     -0.035312     -0.575358
  H      -0.701353     -1.768901     -0.276871
  H      -0.582709     -0.643705      1.064895
  O       1.480972     -1.173564     -2.614477
  H       0.517469     -1.351657     -2.763395
