
                                 *****************
                                 * O   R   C   A *
                                 *****************

                                            #,                                       
                                            ###                                      
                                            ####                                     
                                            #####                                    
                                            ######                                   
                                           ########,                                 
                                     ,,################,,,,,                         
                               ,,#################################,,                 
                          ,,##########################################,,             
                       ,#########################################, ''#####,          
                    ,#############################################,,   '####,        
                  ,##################################################,,,,####,       
                ,###########''''           ''''###############################       
              ,#####''   ,,,,##########,,,,          '''####'''          '####       
            ,##' ,,,,###########################,,,                        '##       
           ' ,,###''''                  '''############,,,                           
         ,,##''                                '''############,,,,        ,,,,,,###''
      ,#''                                            '''#######################'''  
     '                                                          ''''####''''         
             ,#######,   #######,   ,#######,      ##                                
            ,#'     '#,  ##    ##  ,#'     '#,    #''#        ,####,    ,#,          
            ##       ##  ##   ,#'  ##            #'  '#       #'       ,# #          
            ##       ##  #######   ##           ,######,      #####,      #          
            '#,     ,#'  ##    ##  '#,     ,#' ,#      #,     #,   #      #          
             '#######'   ##     ##  '#######'  #'      '#     '####' #    #          



                #########################################################
                #                        -***-                          #
                #          Department of theory and spectroscopy        #
                #                                                       #
                #                      Frank Neese                      #
                #                                                       #
                #     Directorship, Architecture, Infrastructure        #
                #                    SHARK, DRIVERS                     #
                #        Core code/Algorithms in most modules           #
                #                                                       #
                #        Max Planck Institute fuer Kohlenforschung      #
                #                Kaiser Wilhelm Platz 1                 #
                #                 D-45470 Muelheim/Ruhr                 #
                #                      Germany                          #
                #                                                       #
                #                  All rights reserved                  #
                #                        -***-                          #
                #########################################################


                         Program Version 6.1.1  -  RELEASE   -
                                (GIT: $487d211c$)
                          ($2025-11-21 10:33:24 +0100$)


 With contributions from (in alphabetic order):
[Max-Planck-Institut fuer Kohlenforschung]                               
  Daniel Aravena         : Magnetic Suceptibility                        
  Michael Atanasov       : Ab Initio Ligand Field Theory (pilot matlab implementation)
  Alexander A. Auer      : GIAO ZORA, VPT2 properties, NMR spectrum      
  Ute Becker             : All parallelization in ORCA, NUMFREQ, NUMCALC 
  Giovanni Bistoni       : ED, misc. LED, open-shell LED, HFLD           
  Dmytro Bykov           : pre 5.0 version of the SCF Hessian            
  Marcos Casanova-Páez   : Triplet and SCS-CIS(D). UHF-(DLPNO)-IP/EA/STEOM-CCSD. UHF-CVS-IP/STEOM-CCSD   
  Vijay G. Chilkuri      : MRCI spin determinant printing, contributions to CSF-ICE 
  Pauline Colinet        : FMM embedding                                 
  Dipayan Datta          : RHF DLPNO-CCSD density                        
  Achintya Kumar Dutta   : EOM-CC, STEOM-CC                              
  Nicolas Foglia         : Exact transition moments, OPA infrastructure, MCD improvements    
  Dmitry Ganyushin       : Spin-Orbit,Spin-Spin,Magnetic field MRCI      
  Miquel Garcia-Rates    : C-PCM and meta-GGA Hessian, CCSD/C-PCM, Gaussian charge scheme 
  Tiago L. C. Gouveia    : GS-ROHF, GS-ROCIS                             
  Yang Guo               : DLPNO-NEVPT2, F12-NEVPT2, CIM, IAO-localization        
  Andreas Hansen         : Spin unrestricted coupled pair/coupled cluster methods 
  Ingolf Harden          : AUTO-CI MPn and infrastructure                
  Benjamin Helmich-Paris : MC-RPA, TRAH-(SCF,CASSCF), AVAS, COSX integrals, SCF dyn. polar., MC-PDFT, srDFT 
  Lee Huntington         : MR-EOM, pCC                                   
  Robert Izsak           : Overlap fitted RIJCOSX, COSX-SCS-MP3, EOM     
  Riya Kayal             : Wick's Theorem for AUTO-CI, AUTO-CI UHF-CCSDT 
  Emily Kempfer          : AUTO-CI RHF CISDT and CCSDT, approximate NEVPT4
  Christian Kollmar      : KDIIS, OOCD, Brueckner-CCSD(T), CCSD density, CASPT2, CASPT2-K, improved NEVPT2 
  Axel Koslowski         : Symmetry handling                             
  Simone Kossmann        : meta-GGA functionals, TD-DFT gradient, OOMP2, (MP2 Hessian; deprecated post 5.0) 
  Lucas Lang             : DCDCAS, Hyperfine gauge corrections, ICE-SOC+SSC
  Marvin Lechner         : AUTO-CI (C++ implementation), FIC-MRCC        
  Spencer Leger          : CASSCF response                               
  Dagmar Lenk            : GEPOL surface, SMD, ORCA-2-JSON               
  Dimitrios Liakos       : Extrapolation schemes; Compound Job, Property file
  Dimitrios Manganas     : Further ROCIS development; embedding schemes. LFT, Crystal Embedding 
  Dimitrios Pantazis     : SARC Basis sets                               
  Anastasios Papadopoulos: AUTO-CI, single reference methods and gradients 
  Taras Petrenko         : pre 6.0 DFT Hessian and TD-DFT gradient,  ECA, NRVS 
  Petra Pikulova         : Analytic Raman intensities                    
  Peter Pinski           : DLPNO-MP2, DLPNO-MP2 Gradient                 
  Shashank Vittal Rao    : ES-AILFT, MagRelax                            
  Christoph Reimann      : Effective Core Potentials                     
  Marius Retegan         : Local ZFS, SOC                                
  Christoph Riplinger    : Optimizer, TS searches, QM/MM, DLPNO-CCSD(T), (RO)-DLPNO pert. Triples 
  Michael Roemelt        : Original ROCIS implementation, recursive CI coupling coefficients
  Masaaki Saitow         : Open-shell DLPNO-CCSD energy and density      
  Barbara Sandhoefer     : DKH picture change effects                    
  Yorick L. A. Schmerwitz: GMF and freeze-and-release deltaSCF, NEB S-IDPP initial path                    
  Kantharuban Sivalingam : CASSCF convergence/infrastructure, NEVPT2, NEVPT3, NEVPT4(SD), FIC-MRCI and CEPA variants
  Bernardo de Souza      : ESD, SOC TD-DFT                               
  Georgi L. Stoychev     : AutoAux, RI-MP2 NMR, DLPNO-MP2 response, X2C  
  Van Anh Tran           : RI-MP2 g-tensors                              
  Willem Van den Heuvel  : Paramagnetic NMR                              
  Zikuan Wang            : NOTCH, Electric field optimization            
  Frank Wennmohs         : Technical directorship and infrastructure     
  Hang Xu                : AUTO-CI-Response properties                   
                                                                         
[FACCTs GmbH]                                                            
  Markus Bursch, Nicolas Foglia, Miquel Garcia-Rates, Ingolf Harden, Hagen Neugebauer, Anastasios Papadopoulos, 
  Christoph Riplinger, Bernardo de Souza, Georgi L. Stoychev                                                    
                                                                 
  APM, various basis sets, CI-OPT, improved COSX, DLPNO-Multilevel,           
  DOCKER, DRACO, updates on ESD, Fragmentator, GOAT, IRC, LR-CPCM, L-BFGS, MBIS, meta-GGA TD-DFT gradient, ML-optimized integration grids, 
  MM, NACMEs, nearIR, NEB, NEB-TS, NL-DFT gradient (VV10), 2- and 3-layer-ONIOM, interface openCOSMO-RS, QMMM,   
  Crystal-QMMM, RESP, rigid body optimization, SF, symmetry and pop. for TD-DFT, various functionals, SOLVATOR                                   
                                                                         
[Other institutions]                                                     
  V. Asgeirsson          : NEB                                           
  Christoph Bannwarth    : sTDA-DFT, sTD-DFT, PBEh-3c, B97-3c, D3        
  Giovanni Bistoni       : ETS/NOCV, ADLD/ADEX, COVALED                  
  Martin Brehm           : Molecular dynamics                            
  Ronald Cardenas        : ETS/NOCV                                      
  Martina Colucci        : COVALED                                       
  Sebastian Ehlert       : rSCAN, r2SCAN, r2SCAN-3c, D4, dhf basis sets  
  Marvin Friede          : D4 for Fr, Ra, Ac-Lr                          
  Lars Goerigk           : TD-DFT with DH, B97 family of functionals     
  Stefan Grimme          : VdW corrections, initial TS optimization, DFT functionals, gCP, sTDA/sTD-DF 
  Waldemar Hujo          : DFT-NL                                        
  H. Jonsson             : NEB                                           
  Holger Kruse           : gCP                                           
  Marcel Mueller         : wB97X-3c, vDZP basis set                      
  Hagen Neugebauer       : wr2SCAN, Native XTB                           
  Gianluca Regni         : ADLD/ADEX                                     
  Tobias Risthaus        : pre 6.0 range-separated hybrid DFT and stability analysis
  Lukas Wittmann         : regularized MP2, r2SCAN double-hybrids, wr2SCAN        
                                                                         
We gratefully acknowledge several colleagues who have allowed us to      
interface, adapt or use parts of their codes:                            
  Ed Valeev, F. Pavosevic, A. Kumar             : LibInt (2-el integral package), F12 methods 
  Garnet Chan, S. Sharma, J. Yang, R. Olivares  : DMRG                   
  Ulf Ekstrom                                   : XCFun DFT Library      
  Mihaly Kallay                                 : mrcc  (arbitrary order and MRCC methods)
  Frank Weinhold                                : gennbo (NPA and NBO analysis)           
  Simon Mueller                                 : openCOSMO-RS                            
  Christopher J. Cramer and Donald G. Truhlar   : smd solvation model                     
  S Lehtola, MJT Oliveira, MAL Marques          : LibXC Library                           
  Liviu Ungur et al                             : ANISO software                          


 Your calculation uses the libint2 library for the computation of 2-el integrals
 For citations please refer to: http://libint.valeyev.net

 Your ORCA version has been built with support for libXC version: 7.0.0
 For citations please refer to: https://libxc.gitlab.io

 This ORCA versions uses:
   CBLAS   interface :  Fast vector & matrix operations
   LAPACKE interface :  Fast linear algebra routines
   SCALAPACK package :  Parallel linear algebra routines
   Shared memory     :  Shared parallel matrices
   BLAS/LAPACK       :  OpenBLAS 0.3.29  USE64BITINT DYNAMIC_ARCH NO_AFFINITY Zen SINGLE_THREADED
        Core in use  :  Zen
   Copyright (c) 2011-2014, The OpenBLAS Project


  ***********************************
  * Starting time: Sat Sep 19 20:16:59 2026
  * Host name:     b3-21
  * Process ID:    1969883
  * Working dir.:  /tmp/lscratch/tns97255/48349770/out/1_GOAT/goat
  ***********************************

NOTE: MaxCore=5722 MB was set to SCF,MP2,MDCI,CIPSI,MRCI,RASCI and CIS
      => If you want to overwrite this, your respective input block should be placed after the MaxCore statement
Your calculation utilizes the semiempirical GFN2-xTB method
Please cite in your paper:
Bannwarth, C.; Ehlert S.; Grimme, S. J. Chem. Theory Comput. 2019, 15, 1652.
   

================================================================================

================================================================================
                                        WARNINGS
                       Please study these warnings very carefully!
================================================================================


================================================================================
 STARTING AUTOMATIC FRAGMENTATION: 
================================================================================

WARNING: Geometry Optimization
  ===> : Switching off AutoStart
         For restart on a previous wavefunction, please use MOREAD

WARNING: Found dipole moment calculation with XTB calculation
  ===> : Switching off dipole moment calculation


================================================================================
                                       INPUT FILE
================================================================================
NAME = goat.inp
|  1> !xtb
|  2> !goat
|  3> %maxcore 5722
|  4> %pal
|  5>     nprocs 8
|  6> end
|  7> 
|  8> %output
|  9>     jsonpropfile True
| 10>     jsongbwfile True
| 11> end
| 12> 
| 13> * xyz 0 1
| 14> C            -2.4700868300000001             0.3597021500000000             0.4233891700000000
| 15> C            -1.1635427700000001             0.3800887700000000            -0.2642628500000000
| 16> C            -0.1547256500000000            -0.3932631600000000             0.1238620300000000
| 17> C             1.1716866399999999            -0.4201909500000000            -0.5188036499999999
| 18> C             2.2757590900000002            -0.0391956200000000             0.4540165200000000
| 19> H            -2.3871804000000001             0.1173282500000000             1.4999278599999999
| 20> H            -3.1097444300000001            -0.4080925900000000            -0.0475806300000000
| 21> H            -2.8929441300000001             1.3843334100000000             0.3831751600000000
| 22> H            -1.0405997100000000             1.0548571099999999            -1.1127097300000000
| 23> H            -0.3125318600000000            -1.0558470799999999             0.9759492400000001
| 24> H             1.2121944200000001             0.2903749400000000            -1.3462476400000001
| 25> H             1.3300759900000001            -1.4310863400000000            -0.9140451300000000
| 26> H             3.1674169999999999            -0.6263087400000000             0.2567560800000000
| 27> H             2.5117558099999999             1.0230789800000000             0.3555392300000000
| 28> H             1.8624668400000000            -0.2357791100000000             1.4687579399999999
| 29> *
| 30> 
| 31>                          ****END OF INPUT****
================================================================================

                       *****************************
                       * Geometry Optimization Run *
                       *****************************


                       *********************************
                       *              GOAT             *
                       * Global Optimization Algorithm *
                       *********************************

Geometry optimization settings:
Update method            Update   .... BFGS
Choice of coordinates    CoordSys .... (2022) Redundant Internals
Initial Hessian          InHess   .... Almloef's Model
Max. no of cycles        MaxIter  .... 50

Convergence Tolerances:
Energy Change            TolE     ....  5.0000e-06 Eh
Max. Gradient            TolMAXG  ....  3.0000e-04 Eh/bohr
RMS Gradient             TolRMSG  ....  1.0000e-04 Eh/bohr
Max. Displacement        TolMAXD  ....  4.0000e-03 bohr
RMS Displacement         TolRMSD  ....  2.0000e-03 bohr
Strict Convergence                .... True

------------------------------------------------------------------------------
                        ORCA OPTIMIZATION COORDINATE SETUP
------------------------------------------------------------------------------

The optimization will be done in redundant internal coordinates (2022)
Making redundant internal coordinates   ...  (2022 redundants) done
Evaluating the initial hessian          ...  (Almloef) done
Evaluating the coordinates              ...  done
Calculating the B-matrix                .... done
Calculating the G-matrix                .... done
The number of degrees of freedom        ....   58

    -----------------------------------------------------------------
                    Redundant Internal Coordinates


    -----------------------------------------------------------------
         Definition                    Initial Value    Approx d2E/dq
    -----------------------------------------------------------------
      1. B(C   1,C   0)                  1.4766         0.454547   
      2. B(C   2,C   1)                  1.3291         0.781536   
      3. B(C   3,C   2)                  1.4741         0.458654   
      4. B(C   4,C   3)                  1.5200         0.387501   
      5. B(H   5,C   0)                  1.1066         0.338802   
      6. B(H   6,C   0)                  1.1048         0.341101   
      7. B(H   7,C   0)                  1.1092         0.335593   
      8. B(H   8,C   1)                  1.0910         0.358774   
      9. B(H   9,C   2)                  1.0909         0.358966   
     10. B(H  10,C   3)                  1.0914         0.358220   
     11. B(H  11,C   3)                  1.0969         0.351073   
     12. B(H  12,C   4)                  1.0857         0.365881   
     13. B(H  13,C   4)                  1.0926         0.356650   
     14. B(H  14,C   4)                  1.1132         0.330713   
     15. A(H   6,C   0,H   7)          113.9425         0.285223   
     16. A(C   1,C   0,H   5)          112.9410         0.331632   
     17. A(C   1,C   0,H   6)          108.8677         0.332004   
     18. A(C   1,C   0,H   7)          107.9200         0.331110   
     19. A(H   5,C   0,H   6)          107.8117         0.285646   
     20. A(H   5,C   0,H   7)          105.4360         0.284923   
     21. A(C   2,C   1,H   8)          120.0958         0.366876   
     22. A(C   0,C   1,H   8)          118.0611         0.334798   
     23. A(C   0,C   1,C   2)          121.8430         0.427960   
     24. A(C   3,C   2,H   9)          117.3615         0.335329   
     25. A(C   1,C   2,H   9)          118.1468         0.366910   
     26. A(C   1,C   2,C   3)          124.4918         0.428651   
     27. A(C   4,C   3,H  10)          107.1612         0.325995   
     28. A(C   2,C   3,H  10)          110.6107         0.335213   
     29. A(C   2,C   3,C   4)          111.7133         0.378783   
     30. A(H  10,C   3,H  11)          108.7513         0.289445   
     31. A(C   4,C   3,H  11)          110.8988         0.324917   
     32. A(C   2,C   3,H  11)          107.6886         0.334092   
     33. A(H  13,C   4,H  14)          109.5144         0.286557   
     34. A(H  12,C   4,H  14)          112.0277         0.287703   
     35. A(C   3,C   4,H  14)          105.6327         0.321748   
     36. A(H  12,C   4,H  13)          109.3900         0.291127   
     37. A(C   3,C   4,H  13)          110.0530         0.325760   
     38. A(C   3,C   4,H  12)          110.1645         0.327133   
     39. D(C   2,C   1,C   0,H   5)     30.5003         0.015234   
     40. D(C   2,C   1,C   0,H   6)    -89.2137         0.015234   
     41. D(H   8,C   1,C   0,H   6)     90.7844         0.015234   
     42. D(C   2,C   1,C   0,H   7)    146.6445         0.015234   
     43. D(H   8,C   1,C   0,H   5)   -149.5016         0.015234   
     44. D(C   3,C   2,C   1,C   0)    179.9992         0.043920   
     45. D(C   3,C   2,C   1,H   8)      0.0012         0.043920   
     46. D(H   9,C   2,C   1,H   8)    179.9957         0.043920   
     47. D(H   9,C   2,C   1,C   0)     -0.0062         0.043920   
     48. D(H  11,C   3,C   2,C   1)   -117.9928         0.015509   
     49. D(H  10,C   3,C   2,H   9)   -179.2740         0.015509   
     50. D(H  10,C   3,C   2,C   1)      0.7206         0.015509   
     51. D(C   4,C   3,C   2,H   9)    -59.9939         0.015509   
     52. D(C   4,C   3,C   2,C   1)    120.0006         0.015509   
     53. D(H  12,C   4,C   3,C   2)    143.4453         0.011945   
     54. D(H  13,C   4,C   3,H  11)    144.0040         0.011945   
     55. D(H  13,C   4,C   3,H  10)     25.4460         0.011945   
     56. D(H  13,C   4,C   3,C   2)    -95.8546         0.011945   
     57. D(H  12,C   4,C   3,H  11)     23.3039         0.011945   
     58. D(H  12,C   4,C   3,H  10)    -95.2540         0.011945   
    -----------------------------------------------------------------

Number of atoms                         .... 15
Number of degrees of freedom            .... 58


         *************************************************************
         *                GEOMETRY OPTIMIZATION CYCLE   1            *
         *************************************************************
---------------------------------
CARTESIAN COORDINATES (ANGSTROEM)
---------------------------------
  C    -2.470087    0.359702    0.423389
  C    -1.163543    0.380089   -0.264263
  C    -0.154726   -0.393263    0.123862
  C     1.171687   -0.420191   -0.518804
  C     2.275759   -0.039196    0.454017
  H    -2.387180    0.117328    1.499928
  H    -3.109744   -0.408093   -0.047581
  H    -2.892944    1.384333    0.383175
  H    -1.040600    1.054857   -1.112710
  H    -0.312532   -1.055847    0.975949
  H     1.212194    0.290375   -1.346248
  H     1.330076   -1.431086   -0.914045
  H     3.167417   -0.626309    0.256756
  H     2.511756    1.023079    0.355539
  H     1.862467   -0.235779    1.468758

----------------------------
CARTESIAN COORDINATES (A.U.)
----------------------------
  NO LB    ZA    FRAG    MASS        X           Y           Z
   0 C   6.0000    1    12.011   -4.667788    0.679739    0.800090
   1 C   6.0000    1    12.011   -2.198777    0.718264   -0.499384
   2 C   6.0000    1    12.011   -0.292389   -0.743160    0.234065
   3 C   6.0000    1    12.011    2.214167   -0.794046   -0.980397
   4 C   6.0000    1    12.011    4.300561   -0.074069    0.857967
   5 H   1.0000    1     1.008   -4.511117    0.221718    2.834453
   6 H   1.0000    1     1.008   -5.876565   -0.771183   -0.089914
   7 H   1.0000    1     1.008   -5.466872    2.616011    0.724096
   8 H   1.0000    1     1.008   -1.966448    1.993391   -2.102717
   9 H   1.0000    1     1.008   -0.590600   -1.995262    1.844277
  10 H   1.0000    1     1.008    2.290715    0.548729   -2.544039
  11 H   1.0000    1     1.008    2.513479   -2.704361   -1.727295
  12 H   1.0000    1     1.008    5.985551   -1.183552    0.485199
  13 H   1.0000    1     1.008    4.746531    1.933339    0.671872
  14 H   1.0000    1     1.008    3.519552   -0.445558    2.775550

      -----------------------------------------------------------      
     |                   =====================                   |     
     |                           x T B                           |     
     |                   =====================                   |     
     |                         S. Grimme                         |     
     |          Mulliken Center for Theoretical Chemistry        |     
     |                    University of Bonn                     |     
      -----------------------------------------------------------      

   * xtb version 6.7.1 (edcfbbe) compiled by 'albert@albert-system' on 2024-07-22

   xtb is free software: you can redistribute it and/or modify it under
   the terms of the GNU Lesser General Public License as published by
   the Free Software Foundation, either version 3 of the License, or
   (at your option) any later version.
   
   xtb is distributed in the hope that it will be useful,
   but WITHOUT ANY WARRANTY; without even the implied warranty of
   MERCHANTABILITY or FITNESS FOR A PARTICULAR PURPOSE.  See the
   GNU Lesser General Public License for more details.
   
   Cite this work as:
   * C. Bannwarth, E. Caldeweyher, S. Ehlert, A. Hansen, P. Pracht,
     J. Seibert, S. Spicher, S. Grimme, WIREs Comput. Mol. Sci., 2020, 11,
     e01493. DOI: 10.1002/wcms.1493
   
   for GFN2-xTB:
   * C. Bannwarth, S. Ehlert and S. Grimme., J. Chem. Theory Comput., 2019,
     15, 1652-1671. DOI: 10.1021/acs.jctc.8b01176
   for GFN1-xTB:
   * S. Grimme, C. Bannwarth, P. Shushkov, J. Chem. Theory Comput., 2017,
     13, 1989-2009. DOI: 10.1021/acs.jctc.7b00118
   for GFN0-xTB:
   * P. Pracht, E. Caldeweyher, S. Ehlert, S. Grimme, ChemRxiv, 2019, preprint.
     DOI: 10.26434/chemrxiv.8326202.v1
   for GFN-FF:
   * S. Spicher and S. Grimme, Angew. Chem. Int. Ed., 2020, 59, 15665-15673.
     DOI: 10.1002/anie.202004239
   
   for ALPB and GBSA implicit solvation:
   * S. Ehlert, M. Stahn, S. Spicher, S. Grimme, J. Chem. Theory Comput.,
     2021, 17, 4250-4261. DOI: 10.1021/acs.jctc.1c00471
   
   for ddCOSMO and CPCM-X implicit solvation:
   * M. Stahn, S. Ehlert, S. Grimme, J. Phys. Chem. A,
     2023, XX, XXXX-XXXX. DOI: 10.1021/acs.jpca.3c04382
   
   for DFT-D4:
   * E. Caldeweyher, C. Bannwarth and S. Grimme, J. Chem. Phys., 2017,
     147, 034112. DOI: 10.1063/1.4993215
   * E. Caldeweyher, S. Ehlert, A. Hansen, H. Neugebauer, S. Spicher,
     C. Bannwarth and S. Grimme, J. Chem. Phys., 2019, 150, 154122.
     DOI: 10.1063/1.5090222
   * E. Caldeweyher, J.-M. Mewes, S. Ehlert and S. Grimme, Phys. Chem. Chem. Phys.
     2020, 22, 8499-8512. DOI: 10.1039/D0CP00502A
   
   for sTDA-xTB:
   * S. Grimme and C. Bannwarth, J. Chem. Phys., 2016, 145, 054103.
     DOI: 10.1063/1.4959605
   
   in the mass-spec context:
   * V. Asgeirsson, C. Bauer and S. Grimme, Chem. Sci., 2017, 8, 4879.
     DOI: 10.1039/c7sc00601b
   * J. Koopman and S. Grimme, ACS Omega 2019, 4, 12, 15120-15133.
     DOI: 10.1021/acsomega.9b02011
   
   for metadynamics refer to:
   * S. Grimme, J. Chem. Theory Comput., 2019, 155, 2847-2862
     DOI: 10.1021/acs.jctc.9b00143
   
   for SPH calculations refer to:
   * S. Spicher and S. Grimme, J. Chem. Theory Comput., 2021, 17, 1701-1714
     DOI: 10.1021/acs.jctc.0c01306
   
   for ONIOM refer to:
   * C. Plett, A. Katbashev, S. Ehlert, S. Grimme, M. Bursch,
     Phys. Chem. Chem. Phys., 2023, 25, 17860-17868. DOI: 10.1039/D3CP02178E
   
   for DIPRO refer to:
   * J. Kohn, N. Gildemeister, S. Grimme, D. Fazzi, A. Hansen,
     J. Chem. Phys., 2023, just accepted.
   
   for PTB refer to:
   * S. Grimme, M. Mueller, A. Hansen, J. Chem. Phys., 2023, 158, 124111.
     DOI: 10.1063/5.0137838
   
   with help from (in alphabetical order)
   P. Atkinson, C. Bannwarth, F. Bohle, G. Brandenburg, E. Caldeweyher
   M. Checinski, S. Dohm, S. Ehlert, S. Ehrlich, I. Gerasimov, C. Hölzer
   A. Katbashev, J. Kohn, J. Koopman, C. Lavigne, S. Lehtola, F. März, M. Müller,
   F. Musil, H. Neugebauer, J. Pisarek, C. Plett, P. Pracht, F. Pultar,
   J. Seibert, P. Shushkov, S. Spicher, M. Stahn, M. Steiner, T. Strunk,
   J. Stückrath, T. Rose, and J. Unsleber
   
 * started run on 2026/09/19 at 20:17:00.977     
   ID    Z sym.   atoms
    1    6 C      1-5
    2    1 H      6-15

           -------------------------------------------------
          |                Calculation Setup                |
           -------------------------------------------------

          program call               : /apps/eb/ORCA/6.1.1-gompi-2023b-avx2/bin/otool_xtb goat_XTB.xyz --grad -c 0 -u 0 -P 8 --namespace goat --input goat_XTB.input.tmp --acc 0.200000
          hostname                   : b3-21
          calculation namespace      : goat
          coordinate file            : goat_XTB.xyz
          omp threads                :                     8


           -------------------------------------------------
          |                 G F N 2 - x T B                 |
           -------------------------------------------------

        Reference                      10.1021/acs.jctc.8b01176
      * Hamiltonian:
        H0-scaling (s, p, d)           1.850000    2.230000    2.230000
        zeta-weighting                 0.500000
      * Dispersion:
        s8                             2.700000
        a1                             0.520000
        a2                             5.000000
        s9                             5.000000
      * Repulsion:
        kExp                           1.500000    1.000000
        rExp                           1.000000
      * Coulomb:
        alpha                          2.000000
        third order                    shell-resolved
        anisotropic                    true
        a3                             3.000000
        a5                             4.000000
        cn-shift                       1.200000
        cn-exp                         4.000000
        max-rad                        5.000000


          ...................................................
          :                      SETUP                      :
          :.................................................:
          :  # basis functions                  30          :
          :  # atomic orbitals                  30          :
          :  # shells                           20          :
          :  # electrons                        30          :
          :  max. iterations                   250          :
          :  Hamiltonian                  GFN2-xTB          :
          :  restarted?                      false          :
          :  GBSA solvation                  false          :
          :  PC potential                    false          :
          :  electronic temp.          300.0000000     K    :
          :  accuracy                    0.2000000          :
          :  -> integral cutoff          0.3198970E+02      :
          :  -> integral neglect         0.2000000E-08      :
          :  -> SCF convergence          0.2000000E-06 Eh   :
          :  -> wf. convergence          0.2000000E-04 e    :
          :  Broyden damping             0.4000000          :
          :  net charge                          0          :
          :  unpaired electrons                  0          :
          ...................................................

 iter      E             dE          RMSdq      gap      omega  full diag
   1    -15.9946215 -0.159946E+02  0.306E+00    5.23       0.0  T
   2    -16.0276508 -0.330293E-01  0.166E+00    5.18       1.0  T
   3    -16.0283985 -0.747730E-03  0.717E-01    5.13       1.0  T
   4    -16.0282309  0.167632E-03  0.180E-01    5.13       1.0  T
   5    -16.0285478 -0.316862E-03  0.764E-02    5.13       1.0  T
   6    -16.0285821 -0.342995E-04  0.320E-02    5.13       1.0  T
   7    -16.0285828 -0.752521E-06  0.214E-03    5.13      12.1  T
   8    -16.0285828 -0.127055E-07  0.978E-04    5.13      26.4  T
   9    -16.0285828 -0.474511E-09  0.184E-04    5.13     140.2  T
  10    -16.0285828 -0.677325E-10  0.758E-05    5.13     340.4  T

   *** convergence criteria satisfied after 10 iterations ***

         #    Occupation            Energy/Eh            Energy/eV
      -------------------------------------------------------------
         1        2.0000           -0.6207879             -16.8925
       ...           ...                  ...                  ...
         9        2.0000           -0.4783962             -13.0178
        10        2.0000           -0.4645831             -12.6420
        11        2.0000           -0.4532510             -12.3336
        12        2.0000           -0.4350007             -11.8370
        13        2.0000           -0.4246444             -11.5552
        14        2.0000           -0.4222057             -11.4888
        15        2.0000           -0.3795725             -10.3287 (HOMO)
        16                         -0.1910265              -5.1981 (LUMO)
        17                          0.0982036               2.6723
        18                          0.1140960               3.1047
        19                          0.1326358               3.6092
        20                          0.1447896               3.9399
       ...                                ...                  ...
        30                          0.6254488              17.0193
      -------------------------------------------------------------
                  HL-Gap            0.1885460 Eh            5.1306 eV
             Fermi-level           -0.2852995 Eh           -7.7634 eV

 SCC (total)                   0 d,  0 h,  0 min,  0.012 sec
 SCC setup                      ...        0 min,  0.001 sec (  4.392%)
 Dispersion                     ...        0 min,  0.000 sec (  1.834%)
 classical contributions        ...        0 min,  0.000 sec (  1.199%)
 integral evaluation            ...        0 min,  0.000 sec (  4.070%)
 iterations                     ...        0 min,  0.009 sec ( 75.248%)
 molecular gradient             ...        0 min,  0.001 sec ( 11.819%)
 printout                       ...        0 min,  0.000 sec (  1.286%)

         :::::::::::::::::::::::::::::::::::::::::::::::::::::
         ::                     SUMMARY                     ::
         :::::::::::::::::::::::::::::::::::::::::::::::::::::
         :: total energy             -15.767408772708 Eh    ::
         :: gradient norm              0.050936171147 Eh/a0 ::
         :: HOMO-LUMO gap              5.130598306114 eV    ::
         ::.................................................::
         :: SCC energy               -16.028577580554 Eh    ::
         :: -> isotropic ES            0.003119169893 Eh    ::
         :: -> anisotropic ES          0.005164925167 Eh    ::
         :: -> anisotropic XC          0.012285822911 Eh    ::
         :: -> dispersion             -0.007300787811 Eh    ::
         :: repulsion energy           0.261168807846 Eh    ::
         :: add. restraining           0.000000000000 Eh    ::
         :: total charge               0.000000000000 e     ::
         :::::::::::::::::::::::::::::::::::::::::::::::::::::


Property printout bound to 'properties.out'

           -------------------------------------------------
          | TOTAL ENERGY              -15.767408772708 Eh   |
          | GRADIENT NORM               0.050936171147 Eh/α |
          | HOMO-LUMO GAP               5.130598306114 eV   |
           -------------------------------------------------

------------------------------------------------------------------------
 * finished run on 2026/09/19 at 20:17:01.006     
------------------------------------------------------------------------
 total:
 * wall-time:     0 d,  0 h,  0 min,  0.029 sec
 *  cpu-time:     0 d,  0 h,  0 min,  0.163 sec
 * ratio c/w:     5.627 speedup
 SCF:
 * wall-time:     0 d,  0 h,  0 min,  0.012 sec
 *  cpu-time:     0 d,  0 h,  0 min,  0.070 sec
 * ratio c/w:     5.934 speedup


-------------------------   --------------------
FINAL SINGLE POINT ENERGY       -15.767408772710
-------------------------   --------------------


-------------
DIPOLE MOMENT
-------------
                                X             Y             Z
Total Dipole Moment    :     -0.01400      -0.01800       0.01100
                        -----------------------------------------
Magnitude (a.u.)       :      0.02532
Magnitude (Debye)      :      0.06435


------------------
CARTESIAN GRADIENT
------------------

   1   C   :    0.013810073   -0.009706246   -0.010370269
   2   C   :   -0.017194224    0.005081709   -0.001209988
   3   C   :    0.016299015   -0.006446826   -0.000976114
   4   C   :   -0.005979855    0.001674058    0.012886887
   5   C   :    0.006457217    0.001481687   -0.014573319
   6   H   :   -0.002305070    0.001607449    0.011033136
   7   H   :    0.000812606   -0.012614933   -0.003978693
   8   H   :    0.004415502    0.015076568    0.003582434
   9   H   :    0.002167728    0.004315524   -0.004503500
  10   H   :   -0.003419852   -0.002308434    0.003890073
  11   H   :    0.004142072    0.003661671    0.004216169
  12   H   :   -0.002444294   -0.001675988   -0.000105978
  13   H   :   -0.001233424   -0.001582130   -0.005116535
  14   H   :    0.000282587    0.004477248   -0.004059444
  15   H   :   -0.015810080   -0.003041356    0.009285141

Difference to translation invariance:
           :    0.0000000000    0.0000000000   -0.0000000000

Difference to rotation invariance:
           :    0.0000000197   -0.0000000034   -0.0000000260

Norm of the Cartesian gradient     ...    0.0509361711
RMS gradient                       ...    0.0075931161
MAX gradient                       ...    0.0171942243
------------------------------------------------------------------------------
                         ORCA GEOMETRY RELAXATION STEP
------------------------------------------------------------------------------

Reading the OPT-File                    .... done
Getting information on internals        .... done
Copying old internal coords+grads       .... done
Making the new internal coordinates     .... (2022 redundants) done
Validating the new internal coordinates .... (2022 redundants) done
Calculating the B-matrix                .... done
Calculating the G,G- and P matrices     .... done
Transforming gradient to internals      .... done
Projecting the internal gradient        .... done
Number of atoms                         ....  15
Number of internal coordinates          ....  58
Current Energy                          ....   -15.767408773 Eh
Current gradient norm                   ....     0.050936171 Eh/bohr
Maximum allowed component of the step   ....  0.300
Current trust radius                    ....  0.300
Evaluating the initial hessian          ....  (Almloef) done
Projecting the Hessian                  .... done
Forming the augmented Hessian           .... done
Diagonalizing the augmented Hessian     .... done
Last element of RFO vector              ....  0.977269249
Lowest eigenvalues of augmented Hessian:
 -0.007464825  0.012328500  0.015311550  0.015516632  0.028482916
Length of the computed step             ....  0.216932974
The final length of the internal step   ....  0.216932974
Converting the step to Cartesian space:
 Initial RMS(Int)=    0.0284846950
Transforming coordinates:
 Iter   0:  RMS(Cart)=    0.0560924925 RMS(Int)=    0.8227576357
 Iter   5:  RMS(Cart)=    0.0000000573 RMS(Int)=    0.0000000468
done
Storing new coordinates                 .... done

                                .--------------------.
          ----------------------|Geometry convergence|-------------------------
          Item                value                   Tolerance       Converged
          ---------------------------------------------------------------------
          RMS gradient        0.0064277597            0.0001000000      NO
          MAX gradient        0.0164063470            0.0003000000      NO
          RMS step            0.0284846950            0.0020000000      NO
          MAX step            0.0648398551            0.0040000000      NO
          -------------------------------------------------------------------------
          ........................................................
          Max(Bonds)      0.0233      Max(Angles)    2.79
          Max(Dihed)        3.72      Max(Improp)    0.00
          ---------------------------------------------------------------------

    ---------------------------------------------------------------------------
                         Redundant Internal Coordinates
                            (Angstroem and degrees)

        Definition                    Value    dE/dq     Step     New-Value
    ----------------------------------------------------------------------------
     1. B(C   1,C   0)                1.4766 -0.014604  0.0167    1.4933   
     2. B(C   2,C   1)                1.3291  0.002483 -0.0017    1.3274   
     3. B(C   3,C   2)                1.4741 -0.014320  0.0163    1.4904   
     4. B(C   4,C   3)                1.5200 -0.016406  0.0220    1.5420   
     5. B(H   5,C   0)                1.1066  0.010209 -0.0156    1.0910   
     6. B(H   6,C   0)                1.1048  0.009993 -0.0152    1.0896   
     7. B(H   7,C   0)                1.1092  0.012114 -0.0187    1.0905   
     8. B(H   8,C   1)                1.0910  0.006416 -0.0093    1.0817   
     9. B(H   9,C   2)                1.0909  0.004935 -0.0071    1.0837   
    10. B(H  10,C   3)                1.0914 -0.000659  0.0010    1.0924   
    11. B(H  11,C   3)                1.0969  0.001230 -0.0018    1.0951   
    12. B(H  12,C   4)                1.0857  0.000772 -0.0011    1.0846   
    13. B(H  13,C   4)                1.0926  0.004780 -0.0069    1.0857   
    14. B(H  14,C   4)                1.1132  0.014871 -0.0233    1.0899   
    15. A(H   6,C   0,H   7)          113.94  0.012292   -2.79    111.16   
    16. A(C   1,C   0,H   5)          112.94  0.005979   -0.80    112.14   
    17. A(C   1,C   0,H   6)          108.87 -0.005877    0.82    109.68   
    18. A(C   1,C   0,H   7)          107.92 -0.008948    1.59    109.51   
    19. A(H   5,C   0,H   6)          107.81  0.000561   -0.13    107.68   
    20. A(H   5,C   0,H   7)          105.44 -0.003272    1.20    106.63   
    21. A(C   2,C   1,H   8)          120.10  0.003616   -0.45    119.64   
    22. A(C   0,C   1,H   8)          118.06  0.006086   -0.91    117.15   
    23. A(C   0,C   1,C   2)          121.84 -0.009702    1.36    123.21   
    24. A(C   3,C   2,H   9)          117.36  0.004701   -0.73    116.63   
    25. A(C   1,C   2,H   9)          118.15 -0.001014    0.20    118.35   
    26. A(C   1,C   2,C   3)          124.49 -0.003687    0.53    125.02   
    27. A(C   4,C   3,H  10)          107.16 -0.005623    1.46    108.62   
    28. A(C   2,C   3,H  10)          110.61  0.004425   -0.72    109.89   
    29. A(C   2,C   3,C   4)          111.71 -0.001277    0.41    112.12   
    30. A(H  10,C   3,H  11)          108.75  0.001892   -0.85    107.90   
    31. A(C   4,C   3,H  11)          110.90  0.003663   -0.80    110.10   
    32. A(C   2,C   3,H  11)          107.69 -0.002835    0.44    108.13   
    33. A(H  13,C   4,H  14)          109.51  0.004420   -0.75    108.76   
    34. A(H  12,C   4,H  14)          112.03  0.012022   -2.22    109.81   
    35. A(C   3,C   4,H  14)          105.63 -0.014411    2.60    108.24   
    36. A(H  12,C   4,H  13)          109.39  0.003383   -0.64    108.75   
    37. A(C   3,C   4,H  13)          110.05 -0.002727    0.51    110.57   
    38. A(C   3,C   4,H  12)          110.16 -0.003307    0.61    110.78   
    39. D(C   2,C   1,C   0,H   5)     30.50  0.002168   -1.53     28.97   
    40. D(C   2,C   1,C   0,H   6)    -89.21  0.001675   -1.42    -90.63   
    41. D(H   8,C   1,C   0,H   6)     90.78  0.001302   -2.31     88.47   
    42. D(C   2,C   1,C   0,H   7)    146.64 -0.004086    0.48    147.13   
    43. D(H   8,C   1,C   0,H   5)   -149.50  0.001795   -2.43   -151.93   
    44. D(C   3,C   2,C   1,C   0)    180.00  0.000179   -0.91    179.09   
    45. D(C   3,C   2,C   1,H   8)      0.00  0.000559    0.01      0.01   
    46. D(H   9,C   2,C   1,H   8)    180.00  0.000686   -0.06    179.94   
    47. D(H   9,C   2,C   1,C   0)     -0.01  0.000306   -0.97     -0.98   
    48. D(H  11,C   3,C   2,C   1)   -117.99 -0.000296   -0.10   -118.09   
    49. D(H  10,C   3,C   2,H   9)   -179.27  0.002679   -1.21   -180.49   
    50. D(H  10,C   3,C   2,C   1)      0.72  0.002804   -1.28     -0.56   
    51. D(C   4,C   3,C   2,H   9)    -59.99 -0.002287    0.41    -59.58   
    52. D(C   4,C   3,C   2,C   1)    120.00 -0.002162    0.35    120.35   
    53. D(H  12,C   4,C   3,C   2)    143.45 -0.002298    3.40    146.85   
    54. D(H  13,C   4,C   3,H  11)    144.00 -0.000011    3.04    147.05   
    55. D(H  13,C   4,C   3,H  10)     25.45 -0.000956    3.64     29.09   
    56. D(H  13,C   4,C   3,C   2)    -95.85 -0.001970    3.33    -92.53   
    57. D(H  12,C   4,C   3,H  11)     23.30 -0.000339    3.12     26.42   
    58. D(H  12,C   4,C   3,H  10)    -95.25 -0.001284    3.72    -91.54   
    ----------------------------------------------------------------------------

Geometry step timings:
Preparation and reading OPT file:      0.000 s ( 1.157 %)
Internal coordinates            :      0.000 s ( 1.279 %)
B/P matrices and projection     :      0.001 s (35.201 %)
Hessian update/contruction      :      0.000 s (13.886 %)
Making the step                 :      0.000 s (25.091 %)
Converting the step to Cartesian:      0.000 s ( 3.654 %)
Storing new data                :      0.000 s ( 1.279 %)
Checking convergence            :      0.000 s ( 1.401 %)
Final printing                  :      0.000 s (16.991 %)
Total time                      :      0.002 s

Time for energy+gradient        :      0.037 s
Time for complete geometry iter :      0.039 s

         *************************************************************
         *                GEOMETRY OPTIMIZATION CYCLE   2            *
         *************************************************************
---------------------------------
CARTESIAN COORDINATES (ANGSTROEM)
---------------------------------
  C    -2.508378    0.374009    0.418327
  C    -1.174524    0.380350   -0.253095
  C    -0.162438   -0.386586    0.133546
  C     1.177506   -0.426962   -0.517781
  C     2.308803   -0.042326    0.456920
  H    -2.435692    0.111982    1.474891
  H    -3.156883   -0.358969   -0.060606
  H    -2.943323    1.373021    0.373733
  H    -1.052633    1.038875   -1.102587
  H    -0.307136   -1.037635    0.987755
  H     1.199062    0.260938   -1.366085
  H     1.339475   -1.439776   -0.901459
  H     3.216715   -0.589436    0.227444
  H     2.517994    1.021344    0.397477
  H     1.981452   -0.278827    1.469243

----------------------------
CARTESIAN COORDINATES (A.U.)
----------------------------
  NO LB    ZA    FRAG    MASS        X           Y           Z
   0 C   6.0000    1    12.011   -4.740148    0.706775    0.790524
   1 C   6.0000    1    12.011   -2.219529    0.718757   -0.478281
   2 C   6.0000    1    12.011   -0.306963   -0.730542    0.252366
   3 C   6.0000    1    12.011    2.225165   -0.806842   -0.978465
   4 C   6.0000    1    12.011    4.363006   -0.079985    0.863454
   5 H   1.0000    1     1.008   -4.602790    0.211615    2.787141
   6 H   1.0000    1     1.008   -5.965645   -0.678354   -0.114528
   7 H   1.0000    1     1.008   -5.562074    2.594635    0.706254
   8 H   1.0000    1     1.008   -1.989188    1.963188   -2.083588
   9 H   1.0000    1     1.008   -0.580403   -1.960845    1.866586
  10 H   1.0000    1     1.008    2.265900    0.493101   -2.581526
  11 H   1.0000    1     1.008    2.531241   -2.720782   -1.703511
  12 H   1.0000    1     1.008    6.078710   -1.113873    0.429808
  13 H   1.0000    1     1.008    4.758318    1.930060    0.751122
  14 H   1.0000    1     1.008    3.744401   -0.526907    2.776467

      -----------------------------------------------------------      
     |                   =====================                   |     
     |                           x T B                           |     
     |                   =====================                   |     
     |                         S. Grimme                         |     
     |          Mulliken Center for Theoretical Chemistry        |     
     |                    University of Bonn                     |     
      -----------------------------------------------------------      

   * xtb version 6.7.1 (edcfbbe) compiled by 'albert@albert-system' on 2024-07-22

   xtb is free software: you can redistribute it and/or modify it under
   the terms of the GNU Lesser General Public License as published by
   the Free Software Foundation, either version 3 of the License, or
   (at your option) any later version.
   
   xtb is distributed in the hope that it will be useful,
   but WITHOUT ANY WARRANTY; without even the implied warranty of
   MERCHANTABILITY or FITNESS FOR A PARTICULAR PURPOSE.  See the
   GNU Lesser General Public License for more details.
   
   Cite this work as:
   * C. Bannwarth, E. Caldeweyher, S. Ehlert, A. Hansen, P. Pracht,
     J. Seibert, S. Spicher, S. Grimme, WIREs Comput. Mol. Sci., 2020, 11,
     e01493. DOI: 10.1002/wcms.1493
   
   for GFN2-xTB:
   * C. Bannwarth, S. Ehlert and S. Grimme., J. Chem. Theory Comput., 2019,
     15, 1652-1671. DOI: 10.1021/acs.jctc.8b01176
   for GFN1-xTB:
   * S. Grimme, C. Bannwarth, P. Shushkov, J. Chem. Theory Comput., 2017,
     13, 1989-2009. DOI: 10.1021/acs.jctc.7b00118
   for GFN0-xTB:
   * P. Pracht, E. Caldeweyher, S. Ehlert, S. Grimme, ChemRxiv, 2019, preprint.
     DOI: 10.26434/chemrxiv.8326202.v1
   for GFN-FF:
   * S. Spicher and S. Grimme, Angew. Chem. Int. Ed., 2020, 59, 15665-15673.
     DOI: 10.1002/anie.202004239
   
   for ALPB and GBSA implicit solvation:
   * S. Ehlert, M. Stahn, S. Spicher, S. Grimme, J. Chem. Theory Comput.,
     2021, 17, 4250-4261. DOI: 10.1021/acs.jctc.1c00471
   
   for ddCOSMO and CPCM-X implicit solvation:
   * M. Stahn, S. Ehlert, S. Grimme, J. Phys. Chem. A,
     2023, XX, XXXX-XXXX. DOI: 10.1021/acs.jpca.3c04382
   
   for DFT-D4:
   * E. Caldeweyher, C. Bannwarth and S. Grimme, J. Chem. Phys., 2017,
     147, 034112. DOI: 10.1063/1.4993215
   * E. Caldeweyher, S. Ehlert, A. Hansen, H. Neugebauer, S. Spicher,
     C. Bannwarth and S. Grimme, J. Chem. Phys., 2019, 150, 154122.
     DOI: 10.1063/1.5090222
   * E. Caldeweyher, J.-M. Mewes, S. Ehlert and S. Grimme, Phys. Chem. Chem. Phys.
     2020, 22, 8499-8512. DOI: 10.1039/D0CP00502A
   
   for sTDA-xTB:
   * S. Grimme and C. Bannwarth, J. Chem. Phys., 2016, 145, 054103.
     DOI: 10.1063/1.4959605
   
   in the mass-spec context:
   * V. Asgeirsson, C. Bauer and S. Grimme, Chem. Sci., 2017, 8, 4879.
     DOI: 10.1039/c7sc00601b
   * J. Koopman and S. Grimme, ACS Omega 2019, 4, 12, 15120-15133.
     DOI: 10.1021/acsomega.9b02011
   
   for metadynamics refer to:
   * S. Grimme, J. Chem. Theory Comput., 2019, 155, 2847-2862
     DOI: 10.1021/acs.jctc.9b00143
   
   for SPH calculations refer to:
   * S. Spicher and S. Grimme, J. Chem. Theory Comput., 2021, 17, 1701-1714
     DOI: 10.1021/acs.jctc.0c01306
   
   for ONIOM refer to:
   * C. Plett, A. Katbashev, S. Ehlert, S. Grimme, M. Bursch,
     Phys. Chem. Chem. Phys., 2023, 25, 17860-17868. DOI: 10.1039/D3CP02178E
   
   for DIPRO refer to:
   * J. Kohn, N. Gildemeister, S. Grimme, D. Fazzi, A. Hansen,
     J. Chem. Phys., 2023, just accepted.
   
   for PTB refer to:
   * S. Grimme, M. Mueller, A. Hansen, J. Chem. Phys., 2023, 158, 124111.
     DOI: 10.1063/5.0137838
   
   with help from (in alphabetical order)
   P. Atkinson, C. Bannwarth, F. Bohle, G. Brandenburg, E. Caldeweyher
   M. Checinski, S. Dohm, S. Ehlert, S. Ehrlich, I. Gerasimov, C. Hölzer
   A. Katbashev, J. Kohn, J. Koopman, C. Lavigne, S. Lehtola, F. März, M. Müller,
   F. Musil, H. Neugebauer, J. Pisarek, C. Plett, P. Pracht, F. Pultar,
   J. Seibert, P. Shushkov, S. Spicher, M. Stahn, M. Steiner, T. Strunk,
   J. Stückrath, T. Rose, and J. Unsleber
   
 * started run on 2026/09/19 at 20:17:01.015     
   ID    Z sym.   atoms
    1    6 C      1-5
    2    1 H      6-15

           -------------------------------------------------
          |                Calculation Setup                |
           -------------------------------------------------

          program call               : /apps/eb/ORCA/6.1.1-gompi-2023b-avx2/bin/otool_xtb goat_XTB.xyz --grad -c 0 -u 0 -P 8 --namespace goat --input goat_XTB.input.tmp --acc 0.200000
          hostname                   : b3-21
          calculation namespace      : goat
          coordinate file            : goat_XTB.xyz
          omp threads                :                     8


           -------------------------------------------------
          |                 G F N 2 - x T B                 |
           -------------------------------------------------

        Reference                      10.1021/acs.jctc.8b01176
      * Hamiltonian:
        H0-scaling (s, p, d)           1.850000    2.230000    2.230000
        zeta-weighting                 0.500000
      * Dispersion:
        s8                             2.700000
        a1                             0.520000
        a2                             5.000000
        s9                             5.000000
      * Repulsion:
        kExp                           1.500000    1.000000
        rExp                           1.000000
      * Coulomb:
        alpha                          2.000000
        third order                    shell-resolved
        anisotropic                    true
        a3                             3.000000
        a5                             4.000000
        cn-shift                       1.200000
        cn-exp                         4.000000
        max-rad                        5.000000

q/qsh data taken from xtbrestart
CAMM data taken from xtbrestart

          ...................................................
          :                      SETUP                      :
          :.................................................:
          :  # basis functions                  30          :
          :  # atomic orbitals                  30          :
          :  # shells                           20          :
          :  # electrons                        30          :
          :  max. iterations                   250          :
          :  Hamiltonian                  GFN2-xTB          :
          :  restarted?                       true          :
          :  GBSA solvation                  false          :
          :  PC potential                    false          :
          :  electronic temp.          300.0000000     K    :
          :  accuracy                    0.2000000          :
          :  -> integral cutoff          0.3198970E+02      :
          :  -> integral neglect         0.2000000E-08      :
          :  -> SCF convergence          0.2000000E-06 Eh   :
          :  -> wf. convergence          0.2000000E-04 e    :
          :  Broyden damping             0.4000000          :
          :  net charge                          0          :
          :  unpaired electrons                  0          :
          ...................................................

 iter      E             dE          RMSdq      gap      omega  full diag
   1    -16.0401060 -0.160401E+02  0.298E-01    5.17       0.0  T
   2    -16.0401291 -0.231370E-04  0.175E-01    5.17       1.0  T
   3    -16.0401265  0.265305E-05  0.245E-02    5.17       1.1  T
   4    -16.0401295 -0.296813E-05  0.147E-02    5.17       1.8  T
   5    -16.0401318 -0.234607E-05  0.380E-03    5.17       6.8  T
   6    -16.0401318 -0.113660E-07  0.145E-03    5.17      17.8  T
   7    -16.0401318 -0.307296E-08  0.218E-04    5.17     118.5  T
   8    -16.0401318 -0.110159E-09  0.110E-04    5.17     234.4  T
   9    -16.0401318 -0.195968E-10  0.107E-05    5.17    2423.6  T

   *** convergence criteria satisfied after 9 iterations ***

         #    Occupation            Energy/Eh            Energy/eV
      -------------------------------------------------------------
         1        2.0000           -0.6186645             -16.8347
       ...           ...                  ...                  ...
         9        2.0000           -0.4774783             -12.9928
        10        2.0000           -0.4650960             -12.6559
        11        2.0000           -0.4552805             -12.3888
        12        2.0000           -0.4368615             -11.8876
        13        2.0000           -0.4253180             -11.5735
        14        2.0000           -0.4235613             -11.5257
        15        2.0000           -0.3810852             -10.3699 (HOMO)
        16                         -0.1911360              -5.2011 (LUMO)
        17                          0.0928012               2.5252
        18                          0.1166264               3.1736
        19                          0.1326940               3.6108
        20                          0.1583915               4.3101
       ...                                ...                  ...
        30                          0.6293116              17.1244
      -------------------------------------------------------------
                  HL-Gap            0.1899492 Eh            5.1688 eV
             Fermi-level           -0.2861106 Eh           -7.7855 eV

 SCC (total)                   0 d,  0 h,  0 min,  0.019 sec
 SCC setup                      ...        0 min,  0.001 sec (  3.825%)
 Dispersion                     ...        0 min,  0.000 sec (  1.158%)
 classical contributions        ...        0 min,  0.000 sec (  0.685%)
 integral evaluation            ...        0 min,  0.000 sec (  2.301%)
 iterations                     ...        0 min,  0.016 sec ( 85.058%)
 molecular gradient             ...        0 min,  0.001 sec (  6.082%)
 printout                       ...        0 min,  0.000 sec (  0.802%)

         :::::::::::::::::::::::::::::::::::::::::::::::::::::
         ::                     SUMMARY                     ::
         :::::::::::::::::::::::::::::::::::::::::::::::::::::
         :: total energy             -15.772214195560 Eh    ::
         :: gradient norm              0.020845251541 Eh/a0 ::
         :: HOMO-LUMO gap              5.168781054257 eV    ::
         ::.................................................::
         :: SCC energy               -16.040127571695 Eh    ::
         :: -> isotropic ES            0.003204633620 Eh    ::
         :: -> anisotropic ES          0.005043225433 Eh    ::
         :: -> anisotropic XC          0.011615816342 Eh    ::
         :: -> dispersion             -0.007232101174 Eh    ::
         :: repulsion energy           0.267913376135 Eh    ::
         :: add. restraining           0.000000000000 Eh    ::
         :: total charge               0.000000000000 e     ::
         :::::::::::::::::::::::::::::::::::::::::::::::::::::


Property printout bound to 'properties.out'

           -------------------------------------------------
          | TOTAL ENERGY              -15.772214195560 Eh   |
          | GRADIENT NORM               0.020845251541 Eh/α |
          | HOMO-LUMO GAP               5.168781054257 eV   |
           -------------------------------------------------

------------------------------------------------------------------------
 * finished run on 2026/09/19 at 20:17:01.052     
------------------------------------------------------------------------
 total:
 * wall-time:     0 d,  0 h,  0 min,  0.036 sec
 *  cpu-time:     0 d,  0 h,  0 min,  0.207 sec
 * ratio c/w:     5.758 speedup
 SCF:
 * wall-time:     0 d,  0 h,  0 min,  0.019 sec
 *  cpu-time:     0 d,  0 h,  0 min,  0.113 sec
 * ratio c/w:     5.965 speedup


-------------------------   --------------------
FINAL SINGLE POINT ENERGY       -15.772214195560
-------------------------   --------------------


-------------
DIPOLE MOMENT
-------------
                                X             Y             Z
Total Dipole Moment    :     -0.02000      -0.02000       0.01500
                        -----------------------------------------
Magnitude (a.u.)       :      0.03202
Magnitude (Debye)      :      0.08138


------------------
CARTESIAN GRADIENT
------------------

   1   C   :   -0.000126637   -0.004775643   -0.003632408
   2   C   :   -0.007316626    0.005145620   -0.004056262
   3   C   :    0.006855572   -0.005545308    0.000772574
   4   C   :   -0.004837155   -0.001901291    0.001835031
   5   C   :    0.008006721    0.003491556    0.000700461
   6   H   :   -0.002561953    0.002325971    0.001954393
   7   H   :    0.002783651   -0.003615014    0.000901090
   8   H   :    0.003446676    0.003273805    0.003103238
   9   H   :    0.001630100    0.000209953    0.000238183
  10   H   :   -0.002445765    0.000442412    0.000364878
  11   H   :    0.001284769    0.001943358    0.001091611
  12   H   :   -0.001348644   -0.000600392   -0.001286869
  13   H   :   -0.001199985   -0.000097325   -0.000823698
  14   H   :    0.000639489   -0.000249462   -0.001266766
  15   H   :   -0.004810214   -0.000048241    0.000104543

Difference to translation invariance:
           :   -0.0000000000   -0.0000000000   -0.0000000000

Difference to rotation invariance:
           :   -0.0000000002    0.0000000069    0.0000000012

Norm of the Cartesian gradient     ...    0.0208452515
RMS gradient                       ...    0.0031074266
MAX gradient                       ...    0.0080067208
------------------------------------------------------------------------------
                         ORCA GEOMETRY RELAXATION STEP
------------------------------------------------------------------------------

Reading the OPT-File                    .... done
Getting information on internals        .... done
Copying old internal coords+grads       .... done
Making the new internal coordinates     .... (2022 redundants) done
Validating the new internal coordinates .... (2022 redundants) done
Calculating the B-matrix                .... done
Calculating the G,G- and P matrices     .... done
Transforming gradient to internals      .... done
Projecting the internal gradient        .... done
Number of atoms                         ....  15
Number of internal coordinates          ....  58
Current Energy                          ....   -15.772214196 Eh
Current gradient norm                   ....     0.020845252 Eh/bohr
Maximum allowed component of the step   ....  0.300
Current trust radius                    ....  0.300
Updating the Hessian (BFGS)             .... done
Forming the augmented Hessian           .... done
Diagonalizing the augmented Hessian     .... done
Last element of RFO vector              ....  0.965774181
Lowest eigenvalues of augmented Hessian:
 -0.002036369  0.011889493  0.015159734  0.015509580  0.028438290
Length of the computed step             ....  0.268576583
The final length of the internal step   ....  0.268576583
Converting the step to Cartesian space:
 Initial RMS(Int)=    0.0352658330
Transforming coordinates:
 Iter   0:  RMS(Cart)=    0.0538713169 RMS(Int)=    0.0351697998
 Iter   5:  RMS(Cart)=    0.0000001637 RMS(Int)=    0.0000001480
done
Storing new coordinates                 .... done
The predicted energy change is          ....    -0.001091630
Previously predicted energy change      ....    -0.003908060
Actually observed energy change         ....    -0.004805423
Ratio of predicted to observed change   ....     1.229618595
New trust radius                        ....     0.450000000

                                .--------------------.
          ----------------------|Geometry convergence|-------------------------
          Item                value                   Tolerance       Converged
          ---------------------------------------------------------------------
          Energy change      -0.0048054228            0.0000050000      NO
          RMS gradient        0.0020824050            0.0001000000      NO
          MAX gradient        0.0058739598            0.0003000000      NO
          RMS step            0.0352658330            0.0020000000      NO
          MAX step            0.0977686255            0.0040000000      NO
          -------------------------------------------------------------------------
          ........................................................
          Max(Bonds)      0.0063      Max(Angles)    2.35
          Max(Dihed)        5.60      Max(Improp)    0.00
          ---------------------------------------------------------------------

    ---------------------------------------------------------------------------
                         Redundant Internal Coordinates
                            (Angstroem and degrees)

        Definition                    Value    dE/dq     Step     New-Value
    ----------------------------------------------------------------------------
     1. B(C   1,C   0)                1.4933 -0.002106  0.0055    1.4988   
     2. B(C   2,C   1)                1.3274  0.003552 -0.0035    1.3239   
     3. B(C   3,C   2)                1.4904 -0.002260  0.0057    1.4961   
     4. B(C   4,C   3)                1.5420  0.001894 -0.0008    1.5412   
     5. B(H   5,C   0)                1.0910  0.001163 -0.0045    1.0865   
     6. B(H   6,C   0)                1.0896  0.000379 -0.0027    1.0869   
     7. B(H   7,C   0)                1.0905  0.001498 -0.0056    1.0849   
     8. B(H   8,C   1)                1.0817  0.000124 -0.0014    1.0803   
     9. B(H   9,C   2)                1.0837  0.000348 -0.0016    1.0821   
    10. B(H  10,C   3)                1.0924  0.000401 -0.0007    1.0917   
    11. B(H  11,C   3)                1.0951  0.000807 -0.0019    1.0932   
    12. B(H  12,C   4)                1.0846 -0.000781  0.0014    1.0860   
    13. B(H  13,C   4)                1.0857 -0.000052 -0.0008    1.0849   
    14. B(H  14,C   4)                1.0899  0.001552 -0.0063    1.0836   
    15. A(H   6,C   0,H   7)          111.16  0.005874   -2.35    108.80   
    16. A(C   1,C   0,H   5)          112.14  0.004027   -0.89    111.25   
    17. A(C   1,C   0,H   6)          109.69 -0.002178    0.45    110.13   
    18. A(C   1,C   0,H   7)          109.51 -0.003445    1.04    110.55   
    19. A(H   5,C   0,H   6)          107.68 -0.000801    0.19    107.88   
    20. A(H   5,C   0,H   7)          106.63 -0.003244    1.48    108.11   
    21. A(C   2,C   1,H   8)          119.64  0.000443   -0.09    119.55   
    22. A(C   0,C   1,H   8)          117.15  0.003426   -0.85    116.30   
    23. A(C   0,C   1,C   2)          123.20 -0.003873    0.94    124.15   
    24. A(C   3,C   2,H   9)          116.63  0.002653   -0.69    115.94   
    25. A(C   1,C   2,H   9)          118.35 -0.002419    0.57    118.92   
    26. A(C   1,C   2,C   3)          125.02 -0.000234    0.13    125.15   
    27. A(C   4,C   3,H  10)          108.62 -0.002685    1.07    109.69   
    28. A(C   2,C   3,H  10)          109.88  0.001256   -0.38    109.50   
    29. A(C   2,C   3,C   4)          112.12  0.001234   -0.18    111.94   
    30. A(H  10,C   3,H  11)          107.90  0.000372   -0.26    107.64   
    31. A(C   4,C   3,H  11)          110.10  0.001990   -0.78    109.32   
    32. A(C   2,C   3,H  11)          108.13 -0.002151    0.51    108.64   
    33. A(H  13,C   4,H  14)          108.74  0.000589   -0.17    108.58   
    34. A(H  12,C   4,H  14)          109.78  0.004998   -1.56    108.23   
    35. A(C   3,C   4,H  14)          108.22 -0.005717    1.80    110.02   
    36. A(H  12,C   4,H  13)          108.74  0.000390   -0.25    108.49   
    37. A(C   3,C   4,H  13)          110.56 -0.000335    0.15    110.70   
    38. A(C   3,C   4,H  12)          110.77  0.000145    0.05    110.81   
    39. D(C   2,C   1,C   0,H   5)     28.97  0.001496   -2.60     26.37   
    40. D(C   2,C   1,C   0,H   6)    -90.63  0.001377   -2.58    -93.21   
    41. D(H   8,C   1,C   0,H   6)     88.47  0.001026   -3.24     85.23   
    42. D(C   2,C   1,C   0,H   7)    147.13 -0.002291   -0.63    146.50   
    43. D(H   8,C   1,C   0,H   5)   -151.93  0.001145   -3.26   -155.19   
    44. D(C   3,C   2,C   1,C   0)    179.09  0.000065   -0.60    178.50   
    45. D(C   3,C   2,C   1,H   8)      0.01  0.000400    0.08      0.09   
    46. D(H   9,C   2,C   1,H   8)    179.94  0.000316   -0.12    179.81   
    47. D(H   9,C   2,C   1,C   0)     -0.98 -0.000019   -0.80     -1.78   
    48. D(H  11,C   3,C   2,C   1)   -118.09  0.000806   -0.62   -118.71   
    49. D(H  10,C   3,C   2,H   9)    179.51  0.000795   -0.64    178.88   
    50. D(H  10,C   3,C   2,C   1)     -0.56  0.000708   -0.84     -1.40   
    51. D(C   4,C   3,C   2,H   9)    -59.59 -0.000922    0.34    -59.25   
    52. D(C   4,C   3,C   2,C   1)    120.34 -0.001009    0.13    120.48   
    53. D(H  12,C   4,C   3,C   2)    146.85 -0.001551    5.47    152.32   
    54. D(H  13,C   4,C   3,H  11)    147.04 -0.000646    5.30    152.34   
    55. D(H  13,C   4,C   3,H  10)     29.09 -0.000650    5.42     34.50   
    56. D(H  13,C   4,C   3,C   2)    -92.54 -0.001187    5.28    -87.25   
    57. D(H  12,C   4,C   3,H  11)     26.42 -0.001009    5.48     31.91   
    58. D(H  12,C   4,C   3,H  10)    -91.53 -0.001013    5.60    -85.93   
    ----------------------------------------------------------------------------

Geometry step timings:
Preparation and reading OPT file:      0.000 s ( 0.882 %)
Internal coordinates            :      0.000 s ( 1.071 %)
B/P matrices and projection     :      0.001 s (33.144 %)
Hessian update/contruction      :      0.000 s (20.416 %)
Making the step                 :      0.000 s (20.731 %)
Converting the step to Cartesian:      0.000 s ( 3.214 %)
Storing new data                :      0.000 s ( 1.260 %)
Checking convergence            :      0.000 s ( 1.827 %)
Final printing                  :      0.000 s (17.454 %)
Total time                      :      0.002 s

Time for energy+gradient        :      0.043 s
Time for complete geometry iter :      0.045 s

         *************************************************************
         *                GEOMETRY OPTIMIZATION CYCLE   3            *
         *************************************************************
---------------------------------
CARTESIAN COORDINATES (ANGSTROEM)
---------------------------------
  C    -2.520386    0.389643    0.413163
  C    -1.173849    0.376302   -0.245023
  C    -0.162801   -0.383240    0.146757
  C     1.179134   -0.438079   -0.512393
  C     2.312175   -0.042231    0.454542
  H    -2.451519    0.096317    1.457080
  H    -3.187849   -0.307827   -0.086138
  H    -2.955780    1.382394    0.369785
  H    -1.055564    1.018303   -1.105786
  H    -0.291442   -1.020184    1.012057
  H     1.186743    0.225381   -1.379303
  H     1.350069   -1.455998   -0.872518
  H     3.244739   -0.522389    0.173219
  H     2.462961    1.032128    0.449196
  H     2.063372   -0.350521    1.463084

----------------------------
CARTESIAN COORDINATES (A.U.)
----------------------------
  NO LB    ZA    FRAG    MASS        X           Y           Z
   0 C   6.0000    1    12.011   -4.762840    0.736319    0.780765
   1 C   6.0000    1    12.011   -2.218254    0.711108   -0.463027
   2 C   6.0000    1    12.011   -0.307650   -0.724218    0.277331
   3 C   6.0000    1    12.011    2.228239   -0.827849   -0.968282
   4 C   6.0000    1    12.011    4.369377   -0.079806    0.858960
   5 H   1.0000    1     1.008   -4.632700    0.182013    2.753482
   6 H   1.0000    1     1.008   -6.024162   -0.581709   -0.162778
   7 H   1.0000    1     1.008   -5.585615    2.612347    0.698792
   8 H   1.0000    1     1.008   -1.994727    1.924313   -2.089633
   9 H   1.0000    1     1.008   -0.550745   -1.927868    1.912511
  10 H   1.0000    1     1.008    2.242619    0.425908   -2.606504
  11 H   1.0000    1     1.008    2.551260   -2.751437   -1.648820
  12 H   1.0000    1     1.008    6.131668   -0.987172    0.327336
  13 H   1.0000    1     1.008    4.654321    1.950439    0.848858
  14 H   1.0000    1     1.008    3.899208   -0.662389    2.764829

      -----------------------------------------------------------      
     |                   =====================                   |     
     |                           x T B                           |     
     |                   =====================                   |     
     |                         S. Grimme                         |     
     |          Mulliken Center for Theoretical Chemistry        |     
     |                    University of Bonn                     |     
      -----------------------------------------------------------      

   * xtb version 6.7.1 (edcfbbe) compiled by 'albert@albert-system' on 2024-07-22

   xtb is free software: you can redistribute it and/or modify it under
   the terms of the GNU Lesser General Public License as published by
   the Free Software Foundation, either version 3 of the License, or
   (at your option) any later version.
   
   xtb is distributed in the hope that it will be useful,
   but WITHOUT ANY WARRANTY; without even the implied warranty of
   MERCHANTABILITY or FITNESS FOR A PARTICULAR PURPOSE.  See the
   GNU Lesser General Public License for more details.
   
   Cite this work as:
   * C. Bannwarth, E. Caldeweyher, S. Ehlert, A. Hansen, P. Pracht,
     J. Seibert, S. Spicher, S. Grimme, WIREs Comput. Mol. Sci., 2020, 11,
     e01493. DOI: 10.1002/wcms.1493
   
   for GFN2-xTB:
   * C. Bannwarth, S. Ehlert and S. Grimme., J. Chem. Theory Comput., 2019,
     15, 1652-1671. DOI: 10.1021/acs.jctc.8b01176
   for GFN1-xTB:
   * S. Grimme, C. Bannwarth, P. Shushkov, J. Chem. Theory Comput., 2017,
     13, 1989-2009. DOI: 10.1021/acs.jctc.7b00118
   for GFN0-xTB:
   * P. Pracht, E. Caldeweyher, S. Ehlert, S. Grimme, ChemRxiv, 2019, preprint.
     DOI: 10.26434/chemrxiv.8326202.v1
   for GFN-FF:
   * S. Spicher and S. Grimme, Angew. Chem. Int. Ed., 2020, 59, 15665-15673.
     DOI: 10.1002/anie.202004239
   
   for ALPB and GBSA implicit solvation:
   * S. Ehlert, M. Stahn, S. Spicher, S. Grimme, J. Chem. Theory Comput.,
     2021, 17, 4250-4261. DOI: 10.1021/acs.jctc.1c00471
   
   for ddCOSMO and CPCM-X implicit solvation:
   * M. Stahn, S. Ehlert, S. Grimme, J. Phys. Chem. A,
     2023, XX, XXXX-XXXX. DOI: 10.1021/acs.jpca.3c04382
   
   for DFT-D4:
   * E. Caldeweyher, C. Bannwarth and S. Grimme, J. Chem. Phys., 2017,
     147, 034112. DOI: 10.1063/1.4993215
   * E. Caldeweyher, S. Ehlert, A. Hansen, H. Neugebauer, S. Spicher,
     C. Bannwarth and S. Grimme, J. Chem. Phys., 2019, 150, 154122.
     DOI: 10.1063/1.5090222
   * E. Caldeweyher, J.-M. Mewes, S. Ehlert and S. Grimme, Phys. Chem. Chem. Phys.
     2020, 22, 8499-8512. DOI: 10.1039/D0CP00502A
   
   for sTDA-xTB:
   * S. Grimme and C. Bannwarth, J. Chem. Phys., 2016, 145, 054103.
     DOI: 10.1063/1.4959605
   
   in the mass-spec context:
   * V. Asgeirsson, C. Bauer and S. Grimme, Chem. Sci., 2017, 8, 4879.
     DOI: 10.1039/c7sc00601b
   * J. Koopman and S. Grimme, ACS Omega 2019, 4, 12, 15120-15133.
     DOI: 10.1021/acsomega.9b02011
   
   for metadynamics refer to:
   * S. Grimme, J. Chem. Theory Comput., 2019, 155, 2847-2862
     DOI: 10.1021/acs.jctc.9b00143
   
   for SPH calculations refer to:
   * S. Spicher and S. Grimme, J. Chem. Theory Comput., 2021, 17, 1701-1714
     DOI: 10.1021/acs.jctc.0c01306
   
   for ONIOM refer to:
   * C. Plett, A. Katbashev, S. Ehlert, S. Grimme, M. Bursch,
     Phys. Chem. Chem. Phys., 2023, 25, 17860-17868. DOI: 10.1039/D3CP02178E
   
   for DIPRO refer to:
   * J. Kohn, N. Gildemeister, S. Grimme, D. Fazzi, A. Hansen,
     J. Chem. Phys., 2023, just accepted.
   
   for PTB refer to:
   * S. Grimme, M. Mueller, A. Hansen, J. Chem. Phys., 2023, 158, 124111.
     DOI: 10.1063/5.0137838
   
   with help from (in alphabetical order)
   P. Atkinson, C. Bannwarth, F. Bohle, G. Brandenburg, E. Caldeweyher
   M. Checinski, S. Dohm, S. Ehlert, S. Ehrlich, I. Gerasimov, C. Hölzer
   A. Katbashev, J. Kohn, J. Koopman, C. Lavigne, S. Lehtola, F. März, M. Müller,
   F. Musil, H. Neugebauer, J. Pisarek, C. Plett, P. Pracht, F. Pultar,
   J. Seibert, P. Shushkov, S. Spicher, M. Stahn, M. Steiner, T. Strunk,
   J. Stückrath, T. Rose, and J. Unsleber
   
 * started run on 2026/09/19 at 20:17:01.061     
   ID    Z sym.   atoms
    1    6 C      1-5
    2    1 H      6-15

           -------------------------------------------------
          |                Calculation Setup                |
           -------------------------------------------------

          program call               : /apps/eb/ORCA/6.1.1-gompi-2023b-avx2/bin/otool_xtb goat_XTB.xyz --grad -c 0 -u 0 -P 8 --namespace goat --input goat_XTB.input.tmp --acc 0.200000
          hostname                   : b3-21
          calculation namespace      : goat
          coordinate file            : goat_XTB.xyz
          omp threads                :                     8


           -------------------------------------------------
          |                 G F N 2 - x T B                 |
           -------------------------------------------------

        Reference                      10.1021/acs.jctc.8b01176
      * Hamiltonian:
        H0-scaling (s, p, d)           1.850000    2.230000    2.230000
        zeta-weighting                 0.500000
      * Dispersion:
        s8                             2.700000
        a1                             0.520000
        a2                             5.000000
        s9                             5.000000
      * Repulsion:
        kExp                           1.500000    1.000000
        rExp                           1.000000
      * Coulomb:
        alpha                          2.000000
        third order                    shell-resolved
        anisotropic                    true
        a3                             3.000000
        a5                             4.000000
        cn-shift                       1.200000
        cn-exp                         4.000000
        max-rad                        5.000000

q/qsh data taken from xtbrestart
CAMM data taken from xtbrestart

          ...................................................
          :                      SETUP                      :
          :.................................................:
          :  # basis functions                  30          :
          :  # atomic orbitals                  30          :
          :  # shells                           20          :
          :  # electrons                        30          :
          :  max. iterations                   250          :
          :  Hamiltonian                  GFN2-xTB          :
          :  restarted?                       true          :
          :  GBSA solvation                  false          :
          :  PC potential                    false          :
          :  electronic temp.          300.0000000     K    :
          :  accuracy                    0.2000000          :
          :  -> integral cutoff          0.3198970E+02      :
          :  -> integral neglect         0.2000000E-08      :
          :  -> SCF convergence          0.2000000E-06 Eh   :
          :  -> wf. convergence          0.2000000E-04 e    :
          :  Broyden damping             0.4000000          :
          :  net charge                          0          :
          :  unpaired electrons                  0          :
          ...................................................

 iter      E             dE          RMSdq      gap      omega  full diag
   1    -16.0447374 -0.160447E+02  0.191E-01    5.22       0.0  T
   2    -16.0447396 -0.218656E-05  0.112E-01    5.21       1.0  T
   3    -16.0447400 -0.492995E-06  0.501E-03    5.21       5.1  T
   4    -16.0447401 -0.630988E-07  0.267E-03    5.21       9.7  T
   5    -16.0447401  0.115455E-07  0.131E-03    5.21      19.8  T
   6    -16.0447401 -0.171184E-07  0.380E-04    5.21      68.0  T
   7    -16.0447401 -0.965684E-09  0.111E-04    5.21     232.4  T
   8    -16.0447401 -0.183213E-10  0.338E-05    5.21     762.8  T

   *** convergence criteria satisfied after 8 iterations ***

         #    Occupation            Energy/Eh            Energy/eV
      -------------------------------------------------------------
         1        2.0000           -0.6184098             -16.8278
       ...           ...                  ...                  ...
         9        2.0000           -0.4765579             -12.9678
        10        2.0000           -0.4653059             -12.6616
        11        2.0000           -0.4564256             -12.4200
        12        2.0000           -0.4376483             -11.9090
        13        2.0000           -0.4267546             -11.6126
        14        2.0000           -0.4226989             -11.5022
        15        2.0000           -0.3819349             -10.3930 (HOMO)
        16                         -0.1903011              -5.1784 (LUMO)
        17                          0.0882263               2.4008
        18                          0.1217859               3.3140
        19                          0.1295393               3.5249
        20                          0.1611034               4.3838
       ...                                ...                  ...
        30                          0.6404084              17.4264
      -------------------------------------------------------------
                  HL-Gap            0.1916339 Eh            5.2146 eV
             Fermi-level           -0.2861180 Eh           -7.7857 eV

 SCC (total)                   0 d,  0 h,  0 min,  0.017 sec
 SCC setup                      ...        0 min,  0.001 sec (  3.359%)
 Dispersion                     ...        0 min,  0.000 sec (  1.352%)
 classical contributions        ...        0 min,  0.000 sec (  0.834%)
 integral evaluation            ...        0 min,  0.000 sec (  2.918%)
 iterations                     ...        0 min,  0.014 sec ( 83.119%)
 molecular gradient             ...        0 min,  0.001 sec (  7.406%)
 printout                       ...        0 min,  0.000 sec (  0.900%)

         :::::::::::::::::::::::::::::::::::::::::::::::::::::
         ::                     SUMMARY                     ::
         :::::::::::::::::::::::::::::::::::::::::::::::::::::
         :: total energy             -15.773671008242 Eh    ::
         :: gradient norm              0.011169855000 Eh/a0 ::
         :: HOMO-LUMO gap              5.214623272253 eV    ::
         ::.................................................::
         :: SCC energy               -16.044736369750 Eh    ::
         :: -> isotropic ES            0.003191491754 Eh    ::
         :: -> anisotropic ES          0.005001476437 Eh    ::
         :: -> anisotropic XC          0.011383921261 Eh    ::
         :: -> dispersion             -0.007216023202 Eh    ::
         :: repulsion energy           0.271065361507 Eh    ::
         :: add. restraining           0.000000000000 Eh    ::
         :: total charge               0.000000000000 e     ::
         :::::::::::::::::::::::::::::::::::::::::::::::::::::


Property printout bound to 'properties.out'

           -------------------------------------------------
          | TOTAL ENERGY              -15.773671008242 Eh   |
          | GRADIENT NORM               0.011169855000 Eh/α |
          | HOMO-LUMO GAP               5.214623272253 eV   |
           -------------------------------------------------

------------------------------------------------------------------------
 * finished run on 2026/09/19 at 20:17:01.098     
------------------------------------------------------------------------
 total:
 * wall-time:     0 d,  0 h,  0 min,  0.036 sec
 *  cpu-time:     0 d,  0 h,  0 min,  0.207 sec
 * ratio c/w:     5.708 speedup
 SCF:
 * wall-time:     0 d,  0 h,  0 min,  0.017 sec
 *  cpu-time:     0 d,  0 h,  0 min,  0.099 sec
 * ratio c/w:     5.960 speedup


-------------------------   --------------------
FINAL SINGLE POINT ENERGY       -15.773671008240
-------------------------   --------------------


-------------
DIPOLE MOMENT
-------------
                                X             Y             Z
Total Dipole Moment    :     -0.02100      -0.02200       0.01200
                        -----------------------------------------
Magnitude (a.u.)       :      0.03270
Magnitude (Debye)      :      0.08311


------------------
CARTESIAN GRADIENT
------------------

   1   C   :   -0.003957942   -0.001143854   -0.000865281
   2   C   :   -0.000515381    0.002180715   -0.002193776
   3   C   :    0.001728075   -0.002597642    0.000199953
   4   C   :   -0.002121896   -0.002070022   -0.001694888
   5   C   :    0.003669824    0.002395980    0.004347551
   6   H   :   -0.001109649    0.001540387   -0.000712997
   7   H   :    0.001903168    0.000074117    0.001887847
   8   H   :    0.001450196   -0.001410877    0.001230518
   9   H   :    0.000982772   -0.000562830    0.001406335
  10   H   :   -0.001358371    0.000936109   -0.000528663
  11   H   :   -0.000439908    0.000606567    0.000273450
  12   H   :   -0.000130520    0.000725655   -0.001076710
  13   H   :   -0.000911208   -0.000524827    0.001082444
  14   H   :    0.000877016   -0.001106686   -0.000862117
  15   H   :   -0.000066174    0.000957209   -0.002493667

Difference to translation invariance:
           :    0.0000000000    0.0000000000   -0.0000000000

Difference to rotation invariance:
           :    0.0000000019    0.0000000170   -0.0000000145

Norm of the Cartesian gradient     ...    0.0111698550
RMS gradient                       ...    0.0016651037
MAX gradient                       ...    0.0043475510
------------------------------------------------------------------------------
                         ORCA GEOMETRY RELAXATION STEP
------------------------------------------------------------------------------

Reading the OPT-File                    .... done
Getting information on internals        .... done
Copying old internal coords+grads       .... done
Making the new internal coordinates     .... (2022 redundants) done
Validating the new internal coordinates .... (2022 redundants) done
Calculating the B-matrix                .... done
Calculating the G,G- and P matrices     .... done
Transforming gradient to internals      .... done
Projecting the internal gradient        .... done
Number of atoms                         ....  15
Number of internal coordinates          ....  58
Current Energy                          ....   -15.773671008 Eh
Current gradient norm                   ....     0.011169855 Eh/bohr
Maximum allowed component of the step   ....  0.300
Current trust radius                    ....  0.450
Updating the Hessian (BFGS)             .... done
Forming the augmented Hessian           .... done
Diagonalizing the augmented Hessian     .... done
Last element of RFO vector              ....  0.926813230
Lowest eigenvalues of augmented Hessian:
 -0.001413517  0.007297191  0.014730854  0.015510803  0.028408972
Length of the computed step             ....  0.405176152
The final length of the internal step   ....  0.405176152
Converting the step to Cartesian space:
 Initial RMS(Int)=    0.0532022351
Transforming coordinates:
 Iter   0:  RMS(Cart)=    0.0785419469 RMS(Int)=    0.0530181352
 Iter   5:  RMS(Cart)=    0.0000015381 RMS(Int)=    0.0000012223
done
Storing new coordinates                 .... done
The predicted energy change is          ....    -0.000822785
Previously predicted energy change      ....    -0.001091630
Actually observed energy change         ....    -0.001456813
Ratio of predicted to observed change   ....     1.334529922
New trust radius                        ....     0.450000000

                                .--------------------.
          ----------------------|Geometry convergence|-------------------------
          Item                value                   Tolerance       Converged
          ---------------------------------------------------------------------
          Energy change      -0.0014568127            0.0000050000      NO
          RMS gradient        0.0011293576            0.0001000000      NO
          MAX gradient        0.0043675634            0.0003000000      NO
          RMS step            0.0532022351            0.0020000000      NO
          MAX step            0.1521537791            0.0040000000      NO
          -------------------------------------------------------------------------
          ........................................................
          Max(Bonds)      0.0069      Max(Angles)    1.88
          Max(Dihed)        8.72      Max(Improp)    0.00
          ---------------------------------------------------------------------

    ---------------------------------------------------------------------------
                         Redundant Internal Coordinates
                            (Angstroem and degrees)

        Definition                    Value    dE/dq     Step     New-Value
    ----------------------------------------------------------------------------
     1. B(C   1,C   0)                1.4988  0.002208  0.0003    1.4992   
     2. B(C   2,C   1)                1.3239  0.001118 -0.0028    1.3210   
     3. B(C   3,C   2)                1.4961  0.000937  0.0027    1.4988   
     4. B(C   4,C   3)                1.5412  0.004368 -0.0069    1.5344   
     5. B(H   5,C   0)                1.0865 -0.001171 -0.0009    1.0856   
     6. B(H   6,C   0)                1.0869 -0.002084  0.0021    1.0889   
     7. B(H   7,C   0)                1.0849 -0.001922  0.0001    1.0850   
     8. B(H   8,C   1)                1.0803 -0.001347  0.0014    1.0817   
     9. B(H   9,C   2)                1.0821 -0.000812  0.0003    1.0824   
    10. B(H  10,C   3)                1.0917  0.000148 -0.0005    1.0912   
    11. B(H  11,C   3)                1.0932 -0.000341 -0.0002    1.0930   
    12. B(H  12,C   4)                1.0860 -0.000831  0.0023    1.0883   
    13. B(H  13,C   4)                1.0849 -0.000970  0.0011    1.0860   
    14. B(H  14,C   4)                1.0836 -0.002578  0.0010    1.0845   
    15. A(H   6,C   0,H   7)          108.81  0.001286   -1.88    106.92   
    16. A(C   1,C   0,H   5)          111.26  0.001320   -0.76    110.50   
    17. A(C   1,C   0,H   6)          110.14 -0.000053    0.23    110.37   
    18. A(C   1,C   0,H   7)          110.56 -0.000359    0.71    111.27   
    19. A(H   5,C   0,H   6)          107.88 -0.000698    0.29    108.17   
    20. A(H   5,C   0,H   7)          108.11 -0.001515    1.38    109.49   
    21. A(C   2,C   1,H   8)          119.55 -0.000611    0.07    119.62   
    22. A(C   0,C   1,H   8)          116.29  0.001366   -0.81    115.48   
    23. A(C   0,C   1,C   2)          124.14 -0.000760    0.73    124.87   
    24. A(C   3,C   2,H   9)          115.94  0.001204   -0.70    115.24   
    25. A(C   1,C   2,H   9)          118.92 -0.001923    0.73    119.65   
    26. A(C   1,C   2,C   3)          125.15  0.000719   -0.03    125.11   
    27. A(C   4,C   3,H  10)          109.69 -0.000436    0.73    110.42   
    28. A(C   2,C   3,H  10)          109.50 -0.000104   -0.23    109.27   
    29. A(C   2,C   3,C   4)          111.94  0.000926   -0.30    111.63   
    30. A(H  10,C   3,H  11)          107.65 -0.000190   -0.02    107.63   
    31. A(C   4,C   3,H  11)          109.32  0.000494   -0.62    108.70   
    32. A(C   2,C   3,H  11)          108.63 -0.000733    0.45    109.08   
    33. A(H  13,C   4,H  14)          108.56 -0.000371   -0.04    108.52   
    34. A(H  12,C   4,H  14)          108.21  0.000765   -1.14    107.07   
    35. A(C   3,C   4,H  14)          110.00 -0.000854    1.31    111.31   
    36. A(H  12,C   4,H  13)          108.49 -0.000226   -0.17    108.33   
    37. A(C   3,C   4,H  13)          110.70  0.000047    0.09    110.79   
    38. A(C   3,C   4,H  12)          110.81  0.000644   -0.10    110.70   
    39. D(C   2,C   1,C   0,H   5)     26.36  0.000865   -4.14     22.23   
    40. D(C   2,C   1,C   0,H   6)    -93.21  0.000925   -4.16    -97.38   
    41. D(H   8,C   1,C   0,H   6)     85.23  0.000724   -4.54     80.69   
    42. D(C   2,C   1,C   0,H   7)    146.51 -0.000413   -2.43    144.08   
    43. D(H   8,C   1,C   0,H   5)   -155.19  0.000664   -4.52   -159.71   
    44. D(C   3,C   2,C   1,C   0)    178.49 -0.000154   -0.04    178.46   
    45. D(C   3,C   2,C   1,H   8)      0.09  0.000024    0.36      0.46   
    46. D(H   9,C   2,C   1,H   8)    179.81  0.000042   -0.12    179.69   
    47. D(H   9,C   2,C   1,C   0)     -1.79 -0.000136   -0.52     -2.31   
    48. D(H  11,C   3,C   2,C   1)   -118.71  0.000616   -0.88   -119.60   
    49. D(H  10,C   3,C   2,H   9)    178.88 -0.000101   -0.30    178.58   
    50. D(H  10,C   3,C   2,C   1)     -1.40 -0.000090   -0.78     -2.17   
    51. D(C   4,C   3,C   2,H   9)    -59.25 -0.000107    0.26    -58.99   
    52. D(C   4,C   3,C   2,C   1)    120.48 -0.000097   -0.21    120.26   
    53. D(H  12,C   4,C   3,C   2)    152.32 -0.001122    8.66    160.98   
    54. D(H  13,C   4,C   3,H  11)    152.33 -0.000957    8.50    160.83   
    55. D(H  13,C   4,C   3,H  10)     34.50 -0.000762    8.46     42.97   
    56. D(H  13,C   4,C   3,C   2)    -87.26 -0.000949    8.44    -78.82   
    57. D(H  12,C   4,C   3,H  11)     31.91 -0.001129    8.72     40.63   
    58. D(H  12,C   4,C   3,H  10)    -85.92 -0.000935    8.68    -77.24   
    ----------------------------------------------------------------------------

Geometry step timings:
Preparation and reading OPT file:      0.000 s ( 0.953 %)
Internal coordinates            :      0.000 s ( 1.157 %)
B/P matrices and projection     :      0.000 s (33.492 %)
Hessian update/contruction      :      0.000 s (12.389 %)
Making the step                 :      0.000 s (23.009 %)
Converting the step to Cartesian:      0.000 s ( 6.875 %)
Storing new data                :      0.000 s ( 1.361 %)
Checking convergence            :      0.000 s ( 1.906 %)
Final printing                  :      0.000 s (18.788 %)
Total time                      :      0.001 s

Time for energy+gradient        :      0.043 s
Time for complete geometry iter :      0.045 s

         *************************************************************
         *                GEOMETRY OPTIMIZATION CYCLE   4            *
         *************************************************************
---------------------------------
CARTESIAN COORDINATES (ANGSTROEM)
---------------------------------
  C    -2.521656    0.409923    0.406536
  C    -1.171156    0.365719   -0.242822
  C    -0.162646   -0.385395    0.161957
  C     1.178886   -0.458343   -0.502369
  C     2.305608   -0.038408    0.450729
  H    -2.459504    0.072538    1.436507
  H    -3.217815   -0.239412   -0.122138
  H    -2.939512    1.410870    0.378057
  H    -1.057637    0.983981   -1.123109
  H    -0.274039   -1.000475    1.045678
  H     1.175829    0.175110   -1.390861
  H     1.360598   -1.485584   -0.828663
  H     3.267135   -0.402501    0.093871
  H     2.358764    1.043225    0.531776
  H     2.157144   -0.451247    1.442577

----------------------------
CARTESIAN COORDINATES (A.U.)
----------------------------
  NO LB    ZA    FRAG    MASS        X           Y           Z
   0 C   6.0000    1    12.011   -4.765240    0.774642    0.768241
   1 C   6.0000    1    12.011   -2.213164    0.691108   -0.458867
   2 C   6.0000    1    12.011   -0.307356   -0.728291    0.306054
   3 C   6.0000    1    12.011    2.227772   -0.866142   -0.949339
   4 C   6.0000    1    12.011    4.356967   -0.072580    0.851755
   5 H   1.0000    1     1.008   -4.647789    0.137078    2.714605
   6 H   1.0000    1     1.008   -6.080788   -0.452424   -0.230808
   7 H   1.0000    1     1.008   -5.554874    2.666158    0.714424
   8 H   1.0000    1     1.008   -1.998644    1.859454   -2.122369
   9 H   1.0000    1     1.008   -0.517858   -1.890625    1.976045
  10 H   1.0000    1     1.008    2.221994    0.330910   -2.628347
  11 H   1.0000    1     1.008    2.571158   -2.807347   -1.565947
  12 H   1.0000    1     1.008    6.173990   -0.760617    0.177390
  13 H   1.0000    1     1.008    4.457418    1.971410    1.004910
  14 H   1.0000    1     1.008    4.076412   -0.852734    2.726075

      -----------------------------------------------------------      
     |                   =====================                   |     
     |                           x T B                           |     
     |                   =====================                   |     
     |                         S. Grimme                         |     
     |          Mulliken Center for Theoretical Chemistry        |     
     |                    University of Bonn                     |     
      -----------------------------------------------------------      

   * xtb version 6.7.1 (edcfbbe) compiled by 'albert@albert-system' on 2024-07-22

   xtb is free software: you can redistribute it and/or modify it under
   the terms of the GNU Lesser General Public License as published by
   the Free Software Foundation, either version 3 of the License, or
   (at your option) any later version.
   
   xtb is distributed in the hope that it will be useful,
   but WITHOUT ANY WARRANTY; without even the implied warranty of
   MERCHANTABILITY or FITNESS FOR A PARTICULAR PURPOSE.  See the
   GNU Lesser General Public License for more details.
   
   Cite this work as:
   * C. Bannwarth, E. Caldeweyher, S. Ehlert, A. Hansen, P. Pracht,
     J. Seibert, S. Spicher, S. Grimme, WIREs Comput. Mol. Sci., 2020, 11,
     e01493. DOI: 10.1002/wcms.1493
   
   for GFN2-xTB:
   * C. Bannwarth, S. Ehlert and S. Grimme., J. Chem. Theory Comput., 2019,
     15, 1652-1671. DOI: 10.1021/acs.jctc.8b01176
   for GFN1-xTB:
   * S. Grimme, C. Bannwarth, P. Shushkov, J. Chem. Theory Comput., 2017,
     13, 1989-2009. DOI: 10.1021/acs.jctc.7b00118
   for GFN0-xTB:
   * P. Pracht, E. Caldeweyher, S. Ehlert, S. Grimme, ChemRxiv, 2019, preprint.
     DOI: 10.26434/chemrxiv.8326202.v1
   for GFN-FF:
   * S. Spicher and S. Grimme, Angew. Chem. Int. Ed., 2020, 59, 15665-15673.
     DOI: 10.1002/anie.202004239
   
   for ALPB and GBSA implicit solvation:
   * S. Ehlert, M. Stahn, S. Spicher, S. Grimme, J. Chem. Theory Comput.,
     2021, 17, 4250-4261. DOI: 10.1021/acs.jctc.1c00471
   
   for ddCOSMO and CPCM-X implicit solvation:
   * M. Stahn, S. Ehlert, S. Grimme, J. Phys. Chem. A,
     2023, XX, XXXX-XXXX. DOI: 10.1021/acs.jpca.3c04382
   
   for DFT-D4:
   * E. Caldeweyher, C. Bannwarth and S. Grimme, J. Chem. Phys., 2017,
     147, 034112. DOI: 10.1063/1.4993215
   * E. Caldeweyher, S. Ehlert, A. Hansen, H. Neugebauer, S. Spicher,
     C. Bannwarth and S. Grimme, J. Chem. Phys., 2019, 150, 154122.
     DOI: 10.1063/1.5090222
   * E. Caldeweyher, J.-M. Mewes, S. Ehlert and S. Grimme, Phys. Chem. Chem. Phys.
     2020, 22, 8499-8512. DOI: 10.1039/D0CP00502A
   
   for sTDA-xTB:
   * S. Grimme and C. Bannwarth, J. Chem. Phys., 2016, 145, 054103.
     DOI: 10.1063/1.4959605
   
   in the mass-spec context:
   * V. Asgeirsson, C. Bauer and S. Grimme, Chem. Sci., 2017, 8, 4879.
     DOI: 10.1039/c7sc00601b
   * J. Koopman and S. Grimme, ACS Omega 2019, 4, 12, 15120-15133.
     DOI: 10.1021/acsomega.9b02011
   
   for metadynamics refer to:
   * S. Grimme, J. Chem. Theory Comput., 2019, 155, 2847-2862
     DOI: 10.1021/acs.jctc.9b00143
   
   for SPH calculations refer to:
   * S. Spicher and S. Grimme, J. Chem. Theory Comput., 2021, 17, 1701-1714
     DOI: 10.1021/acs.jctc.0c01306
   
   for ONIOM refer to:
   * C. Plett, A. Katbashev, S. Ehlert, S. Grimme, M. Bursch,
     Phys. Chem. Chem. Phys., 2023, 25, 17860-17868. DOI: 10.1039/D3CP02178E
   
   for DIPRO refer to:
   * J. Kohn, N. Gildemeister, S. Grimme, D. Fazzi, A. Hansen,
     J. Chem. Phys., 2023, just accepted.
   
   for PTB refer to:
   * S. Grimme, M. Mueller, A. Hansen, J. Chem. Phys., 2023, 158, 124111.
     DOI: 10.1063/5.0137838
   
   with help from (in alphabetical order)
   P. Atkinson, C. Bannwarth, F. Bohle, G. Brandenburg, E. Caldeweyher
   M. Checinski, S. Dohm, S. Ehlert, S. Ehrlich, I. Gerasimov, C. Hölzer
   A. Katbashev, J. Kohn, J. Koopman, C. Lavigne, S. Lehtola, F. März, M. Müller,
   F. Musil, H. Neugebauer, J. Pisarek, C. Plett, P. Pracht, F. Pultar,
   J. Seibert, P. Shushkov, S. Spicher, M. Stahn, M. Steiner, T. Strunk,
   J. Stückrath, T. Rose, and J. Unsleber
   
 * started run on 2026/09/19 at 20:17:01.107     
   ID    Z sym.   atoms
    1    6 C      1-5
    2    1 H      6-15

           -------------------------------------------------
          |                Calculation Setup                |
           -------------------------------------------------

          program call               : /apps/eb/ORCA/6.1.1-gompi-2023b-avx2/bin/otool_xtb goat_XTB.xyz --grad -c 0 -u 0 -P 8 --namespace goat --input goat_XTB.input.tmp --acc 0.200000
          hostname                   : b3-21
          calculation namespace      : goat
          coordinate file            : goat_XTB.xyz
          omp threads                :                     8


           -------------------------------------------------
          |                 G F N 2 - x T B                 |
           -------------------------------------------------

        Reference                      10.1021/acs.jctc.8b01176
      * Hamiltonian:
        H0-scaling (s, p, d)           1.850000    2.230000    2.230000
        zeta-weighting                 0.500000
      * Dispersion:
        s8                             2.700000
        a1                             0.520000
        a2                             5.000000
        s9                             5.000000
      * Repulsion:
        kExp                           1.500000    1.000000
        rExp                           1.000000
      * Coulomb:
        alpha                          2.000000
        third order                    shell-resolved
        anisotropic                    true
        a3                             3.000000
        a5                             4.000000
        cn-shift                       1.200000
        cn-exp                         4.000000
        max-rad                        5.000000

q/qsh data taken from xtbrestart
CAMM data taken from xtbrestart

          ...................................................
          :                      SETUP                      :
          :.................................................:
          :  # basis functions                  30          :
          :  # atomic orbitals                  30          :
          :  # shells                           20          :
          :  # electrons                        30          :
          :  max. iterations                   250          :
          :  Hamiltonian                  GFN2-xTB          :
          :  restarted?                       true          :
          :  GBSA solvation                  false          :
          :  PC potential                    false          :
          :  electronic temp.          300.0000000     K    :
          :  accuracy                    0.2000000          :
          :  -> integral cutoff          0.3198970E+02      :
          :  -> integral neglect         0.2000000E-08      :
          :  -> SCF convergence          0.2000000E-06 Eh   :
          :  -> wf. convergence          0.2000000E-04 e    :
          :  Broyden damping             0.4000000          :
          :  net charge                          0          :
          :  unpaired electrons                  0          :
          ...................................................

 iter      E             dE          RMSdq      gap      omega  full diag
   1    -16.0460942 -0.160461E+02  0.207E-01    5.25       0.0  T
   2    -16.0460959 -0.170222E-05  0.123E-01    5.25       1.0  T
   3    -16.0460952  0.741021E-06  0.105E-02    5.25       2.5  T
   4    -16.0460963 -0.113955E-05  0.453E-03    5.25       5.7  T
   5    -16.0460965 -0.151913E-06  0.158E-03    5.25      16.4  T
   6    -16.0460965 -0.113708E-08  0.281E-04    5.25      91.8  T
   7    -16.0460965 -0.674554E-10  0.857E-05    5.25     301.2  T
   8    -16.0460965 -0.654410E-11  0.123E-05    5.25    2094.3  T

   *** convergence criteria satisfied after 8 iterations ***

         #    Occupation            Energy/Eh            Energy/eV
      -------------------------------------------------------------
         1        2.0000           -0.6185557             -16.8318
       ...           ...                  ...                  ...
         9        2.0000           -0.4757568             -12.9460
        10        2.0000           -0.4654803             -12.6664
        11        2.0000           -0.4570699             -12.4375
        12        2.0000           -0.4378973             -11.9158
        13        2.0000           -0.4278649             -11.6428
        14        2.0000           -0.4217717             -11.4770
        15        2.0000           -0.3824242             -10.4063 (HOMO)
        16                         -0.1894778              -5.1560 (LUMO)
        17                          0.0876957               2.3863
        18                          0.1222351               3.3262
        19                          0.1327364               3.6119
        20                          0.1640399               4.4638
       ...                                ...                  ...
        30                          0.6506774              17.7058
      -------------------------------------------------------------
                  HL-Gap            0.1929464 Eh            5.2503 eV
             Fermi-level           -0.2859510 Eh           -7.7811 eV

 SCC (total)                   0 d,  0 h,  0 min,  0.013 sec
 SCC setup                      ...        0 min,  0.001 sec (  4.247%)
 Dispersion                     ...        0 min,  0.000 sec (  1.647%)
 classical contributions        ...        0 min,  0.000 sec (  1.038%)
 integral evaluation            ...        0 min,  0.000 sec (  2.760%)
 iterations                     ...        0 min,  0.010 sec ( 76.116%)
 molecular gradient             ...        0 min,  0.002 sec ( 12.378%)
 printout                       ...        0 min,  0.000 sec (  1.664%)

         :::::::::::::::::::::::::::::::::::::::::::::::::::::
         ::                     SUMMARY                     ::
         :::::::::::::::::::::::::::::::::::::::::::::::::::::
         :: total energy             -15.774723865436 Eh    ::
         :: gradient norm              0.009320692908 Eh/a0 ::
         :: HOMO-LUMO gap              5.250338433175 eV    ::
         ::.................................................::
         :: SCC energy               -16.046092929627 Eh    ::
         :: -> isotropic ES            0.003138866016 Eh    ::
         :: -> anisotropic ES          0.004991257162 Eh    ::
         :: -> anisotropic XC          0.011340220401 Eh    ::
         :: -> dispersion             -0.007216946837 Eh    ::
         :: repulsion energy           0.271369064191 Eh    ::
         :: add. restraining           0.000000000000 Eh    ::
         :: total charge               0.000000000000 e     ::
         :::::::::::::::::::::::::::::::::::::::::::::::::::::


Property printout bound to 'properties.out'

           -------------------------------------------------
          | TOTAL ENERGY              -15.774723865436 Eh   |
          | GRADIENT NORM               0.009320692908 Eh/α |
          | HOMO-LUMO GAP               5.250338433175 eV   |
           -------------------------------------------------

------------------------------------------------------------------------
 * finished run on 2026/09/19 at 20:17:01.139     
------------------------------------------------------------------------
 total:
 * wall-time:     0 d,  0 h,  0 min,  0.032 sec
 *  cpu-time:     0 d,  0 h,  0 min,  0.204 sec
 * ratio c/w:     6.409 speedup
 SCF:
 * wall-time:     0 d,  0 h,  0 min,  0.013 sec
 *  cpu-time:     0 d,  0 h,  0 min,  0.092 sec
 * ratio c/w:     6.945 speedup


-------------------------   --------------------
FINAL SINGLE POINT ENERGY       -15.774723865440
-------------------------   --------------------


-------------
DIPOLE MOMENT
-------------
                                X             Y             Z
Total Dipole Moment    :     -0.02200      -0.02000       0.00800
                        -----------------------------------------
Magnitude (a.u.)       :      0.03079
Magnitude (Debye)      :      0.07826


------------------
CARTESIAN GRADIENT
------------------

   1   C   :   -0.003189358    0.001380182    0.000766563
   2   C   :    0.003393680   -0.000955227    0.000701484
   3   C   :   -0.001814979    0.000038442   -0.000859940
   4   C   :    0.000621208   -0.000812872   -0.002518037
   5   C   :   -0.001397122    0.000799452    0.003371616
   6   H   :    0.000574784    0.000315975   -0.001245932
   7   H   :    0.000075226    0.001378476    0.001288365
   8   H   :   -0.000942874   -0.002432350   -0.000840326
   9   H   :    0.000218681   -0.000121116    0.001138774
  10   H   :   -0.000151678    0.000532640   -0.000441515
  11   H   :   -0.001565839   -0.000294986   -0.000074988
  12   H   :    0.000819188    0.001083003   -0.000744833
  13   H   :   -0.000038503   -0.001247631    0.001841613
  14   H   :    0.001086362   -0.000666622   -0.000814668
  15   H   :    0.002311224    0.001002634   -0.001568175

Difference to translation invariance:
           :   -0.0000000000   -0.0000000000    0.0000000000

Difference to rotation invariance:
           :    0.0000000001    0.0000000087   -0.0000000043

Norm of the Cartesian gradient     ...    0.0093206929
RMS gradient                       ...    0.0013894469
MAX gradient                       ...    0.0033936799
------------------------------------------------------------------------------
                         ORCA GEOMETRY RELAXATION STEP
------------------------------------------------------------------------------

Reading the OPT-File                    .... done
Getting information on internals        .... done
Copying old internal coords+grads       .... done
Making the new internal coordinates     .... (2022 redundants) done
Validating the new internal coordinates .... (2022 redundants) done
Calculating the B-matrix                .... done
Calculating the G,G- and P matrices     .... done
Transforming gradient to internals      .... done
Projecting the internal gradient        .... done
Number of atoms                         ....  15
Number of internal coordinates          ....  58
Current Energy                          ....   -15.774723865 Eh
Current gradient norm                   ....     0.009320693 Eh/bohr
Maximum allowed component of the step   ....  0.300
Current trust radius                    ....  0.450
Updating the Hessian (BFGS)             .... done
Forming the augmented Hessian           .... done
Diagonalizing the augmented Hessian     .... done
Last element of RFO vector              ....  0.903770134
Lowest eigenvalues of augmented Hessian:
 -0.001096054  0.003939217  0.014625852  0.015512526  0.028449663
Length of the computed step             ....  0.473591840
Warning: the length of the step is outside the trust region - taking restricted step instead
The input lambda is                     ....     0.002020
   iter:   5  x=   -0.001191  g=  146.368983 f(x)=     0.070968
   iter:  10  x=   -0.001313  g=   93.149869 f(x)=     0.000000
The output lambda is                    ....    -0.001313 (10 iterations)
The final length of the internal step   ....  0.450000000
Converting the step to Cartesian space:
 Initial RMS(Int)=    0.0590878948
Transforming coordinates:
 Iter   0:  RMS(Cart)=    0.0860134176 RMS(Int)=    0.0588823339
 Iter   5:  RMS(Cart)=    0.0000022030 RMS(Int)=    0.0000017337
done
Storing new coordinates                 .... done
The predicted energy change is          ....    -0.000657853
Previously predicted energy change      ....    -0.000822785
Actually observed energy change         ....    -0.001052857
Ratio of predicted to observed change   ....     1.279625597
New trust radius                        ....     0.450000000

                                .--------------------.
          ----------------------|Geometry convergence|-------------------------
          Item                value                   Tolerance       Converged
          ---------------------------------------------------------------------
          Energy change      -0.0010528572            0.0000050000      NO
          RMS gradient        0.0011312346            0.0001000000      NO
          MAX gradient        0.0031681845            0.0003000000      NO
          RMS step            0.0590878948            0.0020000000      NO
          MAX step            0.1681347350            0.0040000000      NO
          -------------------------------------------------------------------------
          ........................................................
          Max(Bonds)      0.0082      Max(Angles)    0.79
          Max(Dihed)        9.63      Max(Improp)    0.00
          ---------------------------------------------------------------------

    ---------------------------------------------------------------------------
                         Redundant Internal Coordinates
                            (Angstroem and degrees)

        Definition                    Value    dE/dq     Step     New-Value
    ----------------------------------------------------------------------------
     1. B(C   1,C   0)                1.4992  0.003142 -0.0031    1.4960   
     2. B(C   2,C   1)                1.3210 -0.000900 -0.0011    1.3199   
     3. B(C   3,C   2)                1.4988  0.001875  0.0001    1.4989   
     4. B(C   4,C   3)                1.5344  0.003168 -0.0082    1.5262   
     5. B(H   5,C   0)                1.0856 -0.001247  0.0006    1.0862   
     6. B(H   6,C   0)                1.0889 -0.001496  0.0027    1.0917   
     7. B(H   7,C   0)                1.0850 -0.001859  0.0020    1.0871   
     8. B(H   8,C   1)                1.0817 -0.000973  0.0018    1.0835   
     9. B(H   9,C   2)                1.0824 -0.000648  0.0008    1.0832   
    10. B(H  10,C   3)                1.0912 -0.000106 -0.0001    1.0911   
    11. B(H  11,C   3)                1.0930 -0.000659  0.0009    1.0939   
    12. B(H  12,C   4)                1.0883 -0.000220  0.0017    1.0900   
    13. B(H  13,C   4)                1.0860 -0.000672  0.0013    1.0873   
    14. B(H  14,C   4)                1.0845 -0.002132  0.0026    1.0871   
    15. A(H   6,C   0,H   7)          106.93 -0.002001   -0.79    106.14   
    16. A(C   1,C   0,H   5)          110.50 -0.001171   -0.29    110.21   
    17. A(C   1,C   0,H   6)          110.37  0.001185   -0.02    110.35   
    18. A(C   1,C   0,H   7)          111.27  0.001627    0.17    111.44   
    19. A(H   5,C   0,H   6)          108.17 -0.000169    0.24    108.41   
    20. A(H   5,C   0,H   7)          109.49  0.000469    0.69    110.18   
    21. A(C   2,C   1,H   8)          119.62 -0.000746    0.14    119.76   
    22. A(C   0,C   1,H   8)          115.48 -0.000474   -0.48    115.00   
    23. A(C   0,C   1,C   2)          124.87  0.001222    0.33    125.21   
    24. A(C   3,C   2,H   9)          115.23 -0.000157   -0.46    114.78   
    25. A(C   1,C   2,H   9)          119.65 -0.000708    0.59    120.24   
    26. A(C   1,C   2,C   3)          125.11  0.000865   -0.14    124.97   
    27. A(C   4,C   3,H  10)          110.42  0.001194    0.13    110.56   
    28. A(C   2,C   3,H  10)          109.28 -0.000954    0.02    109.30   
    29. A(C   2,C   3,C   4)          111.63  0.000320   -0.29    111.34   
    30. A(H  10,C   3,H  11)          107.64 -0.000378    0.17    107.80   
    31. A(C   4,C   3,H  11)          108.70 -0.000641   -0.25    108.44   
    32. A(C   2,C   3,H  11)          109.08  0.000432    0.24    109.32   
    33. A(H  13,C   4,H  14)          108.52 -0.000472   -0.01    108.51   
    34. A(H  12,C   4,H  14)          107.07 -0.002383   -0.29    106.78   
    35. A(C   3,C   4,H  14)          111.31  0.002416    0.40    111.71   
    36. A(H  12,C   4,H  13)          108.33 -0.000423   -0.04    108.28   
    37. A(C   3,C   4,H  13)          110.79  0.000288    0.00    110.79   
    38. A(C   3,C   4,H  12)          110.70  0.000407   -0.12    110.58   
    39. D(C   2,C   1,C   0,H   5)     22.22  0.000264   -4.89     17.33   
    40. D(C   2,C   1,C   0,H   6)    -97.38  0.000463   -4.99   -102.37   
    41. D(H   8,C   1,C   0,H   6)     80.69  0.000492   -5.07     75.62   
    42. D(C   2,C   1,C   0,H   7)    144.08  0.001162   -4.10    139.98   
    43. D(H   8,C   1,C   0,H   5)   -159.71  0.000292   -4.98   -164.68   
    44. D(C   3,C   2,C   1,C   0)    178.46 -0.000184    0.38    178.84   
    45. D(C   3,C   2,C   1,H   8)      0.46 -0.000220    0.48      0.94   
    46. D(H   9,C   2,C   1,H   8)    179.69 -0.000160   -0.02    179.67   
    47. D(H   9,C   2,C   1,C   0)     -2.31 -0.000124   -0.11     -2.43   
    48. D(H  11,C   3,C   2,C   1)   -119.59  0.000217   -0.81   -120.40   
    49. D(H  10,C   3,C   2,H   9)    178.57 -0.000588    0.01    178.58   
    50. D(H  10,C   3,C   2,C   1)     -2.17 -0.000534   -0.46     -2.63   
    51. D(C   4,C   3,C   2,H   9)    -58.99  0.000477   -0.00    -58.99   
    52. D(C   4,C   3,C   2,C   1)    120.27  0.000530   -0.47    119.80   
    53. D(H  12,C   4,C   3,C   2)    160.98 -0.000612    9.59    170.57   
    54. D(H  13,C   4,C   3,H  11)    160.82 -0.001001    9.50    170.32   
    55. D(H  13,C   4,C   3,H  10)     42.96 -0.000850    9.38     52.35   
    56. D(H  13,C   4,C   3,C   2)    -78.82 -0.000685    9.46    -69.36   
    57. D(H  12,C   4,C   3,H  11)     40.62 -0.000928    9.63     50.26   
    58. D(H  12,C   4,C   3,H  10)    -77.24 -0.000777    9.52    -67.72   
    ----------------------------------------------------------------------------

Geometry step timings:
Preparation and reading OPT file:      0.000 s ( 0.866 %)
Internal coordinates            :      0.000 s ( 1.039 %)
B/P matrices and projection     :      0.000 s (27.771 %)
Hessian update/contruction      :      0.000 s (10.855 %)
Making the step                 :      0.001 s (37.067 %)
Converting the step to Cartesian:      0.000 s ( 3.233 %)
Storing new data                :      0.000 s ( 1.212 %)
Checking convergence            :      0.000 s ( 1.617 %)
Final printing                  :      0.000 s (16.224 %)
Total time                      :      0.002 s

Time for energy+gradient        :      0.039 s
Time for complete geometry iter :      0.041 s

         *************************************************************
         *                GEOMETRY OPTIMIZATION CYCLE   5            *
         *************************************************************
---------------------------------
CARTESIAN COORDINATES (ANGSTROEM)
---------------------------------
  C    -2.515118    0.428558    0.399382
  C    -1.168088    0.351598   -0.246898
  C    -0.162430   -0.391206    0.176173
  C     1.177310   -0.483238   -0.489628
  C     2.294917   -0.031422    0.446332
  H    -2.467348    0.042574    1.413532
  H    -3.239759   -0.164721   -0.161579
  H    -2.896376    1.446550    0.403192
  H    -1.058310    0.942265   -1.148578
  H    -0.261823   -0.980643    1.079509
  H     1.170770    0.120958   -1.398172
  H     1.366951   -1.520868   -0.779443
  H     3.270355   -0.257487    0.015625
  H     2.240377    1.039915    0.623718
  H     2.248573   -0.542832    1.404561

----------------------------
CARTESIAN COORDINATES (A.U.)
----------------------------
  NO LB    ZA    FRAG    MASS        X           Y           Z
   0 C   6.0000    1    12.011   -4.752884    0.809858    0.754722
   1 C   6.0000    1    12.011   -2.207367    0.664424   -0.466570
   2 C   6.0000    1    12.011   -0.306949   -0.739272    0.332919
   3 C   6.0000    1    12.011    2.224794   -0.913188   -0.925262
   4 C   6.0000    1    12.011    4.336765   -0.059380    0.843445
   5 H   1.0000    1     1.008   -4.662612    0.080453    2.671188
   6 H   1.0000    1     1.008   -6.122258   -0.311277   -0.305340
   7 H   1.0000    1     1.008   -5.473357    2.733584    0.761922
   8 H   1.0000    1     1.008   -1.999916    1.780624   -2.170498
   9 H   1.0000    1     1.008   -0.494774   -1.853146    2.039976
  10 H   1.0000    1     1.008    2.212434    0.228577   -2.642162
  11 H   1.0000    1     1.008    2.583163   -2.874025   -1.472934
  12 H   1.0000    1     1.008    6.180075   -0.486580    0.029527
  13 H   1.0000    1     1.008    4.233698    1.965154    1.178656
  14 H   1.0000    1     1.008    4.249187   -1.025805    2.654235

      -----------------------------------------------------------      
     |                   =====================                   |     
     |                           x T B                           |     
     |                   =====================                   |     
     |                         S. Grimme                         |     
     |          Mulliken Center for Theoretical Chemistry        |     
     |                    University of Bonn                     |     
      -----------------------------------------------------------      

   * xtb version 6.7.1 (edcfbbe) compiled by 'albert@albert-system' on 2024-07-22

   xtb is free software: you can redistribute it and/or modify it under
   the terms of the GNU Lesser General Public License as published by
   the Free Software Foundation, either version 3 of the License, or
   (at your option) any later version.
   
   xtb is distributed in the hope that it will be useful,
   but WITHOUT ANY WARRANTY; without even the implied warranty of
   MERCHANTABILITY or FITNESS FOR A PARTICULAR PURPOSE.  See the
   GNU Lesser General Public License for more details.
   
   Cite this work as:
   * C. Bannwarth, E. Caldeweyher, S. Ehlert, A. Hansen, P. Pracht,
     J. Seibert, S. Spicher, S. Grimme, WIREs Comput. Mol. Sci., 2020, 11,
     e01493. DOI: 10.1002/wcms.1493
   
   for GFN2-xTB:
   * C. Bannwarth, S. Ehlert and S. Grimme., J. Chem. Theory Comput., 2019,
     15, 1652-1671. DOI: 10.1021/acs.jctc.8b01176
   for GFN1-xTB:
   * S. Grimme, C. Bannwarth, P. Shushkov, J. Chem. Theory Comput., 2017,
     13, 1989-2009. DOI: 10.1021/acs.jctc.7b00118
   for GFN0-xTB:
   * P. Pracht, E. Caldeweyher, S. Ehlert, S. Grimme, ChemRxiv, 2019, preprint.
     DOI: 10.26434/chemrxiv.8326202.v1
   for GFN-FF:
   * S. Spicher and S. Grimme, Angew. Chem. Int. Ed., 2020, 59, 15665-15673.
     DOI: 10.1002/anie.202004239
   
   for ALPB and GBSA implicit solvation:
   * S. Ehlert, M. Stahn, S. Spicher, S. Grimme, J. Chem. Theory Comput.,
     2021, 17, 4250-4261. DOI: 10.1021/acs.jctc.1c00471
   
   for ddCOSMO and CPCM-X implicit solvation:
   * M. Stahn, S. Ehlert, S. Grimme, J. Phys. Chem. A,
     2023, XX, XXXX-XXXX. DOI: 10.1021/acs.jpca.3c04382
   
   for DFT-D4:
   * E. Caldeweyher, C. Bannwarth and S. Grimme, J. Chem. Phys., 2017,
     147, 034112. DOI: 10.1063/1.4993215
   * E. Caldeweyher, S. Ehlert, A. Hansen, H. Neugebauer, S. Spicher,
     C. Bannwarth and S. Grimme, J. Chem. Phys., 2019, 150, 154122.
     DOI: 10.1063/1.5090222
   * E. Caldeweyher, J.-M. Mewes, S. Ehlert and S. Grimme, Phys. Chem. Chem. Phys.
     2020, 22, 8499-8512. DOI: 10.1039/D0CP00502A
   
   for sTDA-xTB:
   * S. Grimme and C. Bannwarth, J. Chem. Phys., 2016, 145, 054103.
     DOI: 10.1063/1.4959605
   
   in the mass-spec context:
   * V. Asgeirsson, C. Bauer and S. Grimme, Chem. Sci., 2017, 8, 4879.
     DOI: 10.1039/c7sc00601b
   * J. Koopman and S. Grimme, ACS Omega 2019, 4, 12, 15120-15133.
     DOI: 10.1021/acsomega.9b02011
   
   for metadynamics refer to:
   * S. Grimme, J. Chem. Theory Comput., 2019, 155, 2847-2862
     DOI: 10.1021/acs.jctc.9b00143
   
   for SPH calculations refer to:
   * S. Spicher and S. Grimme, J. Chem. Theory Comput., 2021, 17, 1701-1714
     DOI: 10.1021/acs.jctc.0c01306
   
   for ONIOM refer to:
   * C. Plett, A. Katbashev, S. Ehlert, S. Grimme, M. Bursch,
     Phys. Chem. Chem. Phys., 2023, 25, 17860-17868. DOI: 10.1039/D3CP02178E
   
   for DIPRO refer to:
   * J. Kohn, N. Gildemeister, S. Grimme, D. Fazzi, A. Hansen,
     J. Chem. Phys., 2023, just accepted.
   
   for PTB refer to:
   * S. Grimme, M. Mueller, A. Hansen, J. Chem. Phys., 2023, 158, 124111.
     DOI: 10.1063/5.0137838
   
   with help from (in alphabetical order)
   P. Atkinson, C. Bannwarth, F. Bohle, G. Brandenburg, E. Caldeweyher
   M. Checinski, S. Dohm, S. Ehlert, S. Ehrlich, I. Gerasimov, C. Hölzer
   A. Katbashev, J. Kohn, J. Koopman, C. Lavigne, S. Lehtola, F. März, M. Müller,
   F. Musil, H. Neugebauer, J. Pisarek, C. Plett, P. Pracht, F. Pultar,
   J. Seibert, P. Shushkov, S. Spicher, M. Stahn, M. Steiner, T. Strunk,
   J. Stückrath, T. Rose, and J. Unsleber
   
 * started run on 2026/09/19 at 20:17:01.148     
   ID    Z sym.   atoms
    1    6 C      1-5
    2    1 H      6-15

           -------------------------------------------------
          |                Calculation Setup                |
           -------------------------------------------------

          program call               : /apps/eb/ORCA/6.1.1-gompi-2023b-avx2/bin/otool_xtb goat_XTB.xyz --grad -c 0 -u 0 -P 8 --namespace goat --input goat_XTB.input.tmp --acc 0.200000
          hostname                   : b3-21
          calculation namespace      : goat
          coordinate file            : goat_XTB.xyz
          omp threads                :                     8


           -------------------------------------------------
          |                 G F N 2 - x T B                 |
           -------------------------------------------------

        Reference                      10.1021/acs.jctc.8b01176
      * Hamiltonian:
        H0-scaling (s, p, d)           1.850000    2.230000    2.230000
        zeta-weighting                 0.500000
      * Dispersion:
        s8                             2.700000
        a1                             0.520000
        a2                             5.000000
        s9                             5.000000
      * Repulsion:
        kExp                           1.500000    1.000000
        rExp                           1.000000
      * Coulomb:
        alpha                          2.000000
        third order                    shell-resolved
        anisotropic                    true
        a3                             3.000000
        a5                             4.000000
        cn-shift                       1.200000
        cn-exp                         4.000000
        max-rad                        5.000000

q/qsh data taken from xtbrestart
CAMM data taken from xtbrestart

          ...................................................
          :                      SETUP                      :
          :.................................................:
          :  # basis functions                  30          :
          :  # atomic orbitals                  30          :
          :  # shells                           20          :
          :  # electrons                        30          :
          :  max. iterations                   250          :
          :  Hamiltonian                  GFN2-xTB          :
          :  restarted?                       true          :
          :  GBSA solvation                  false          :
          :  PC potential                    false          :
          :  electronic temp.          300.0000000     K    :
          :  accuracy                    0.2000000          :
          :  -> integral cutoff          0.3198970E+02      :
          :  -> integral neglect         0.2000000E-08      :
          :  -> SCF convergence          0.2000000E-06 Eh   :
          :  -> wf. convergence          0.2000000E-04 e    :
          :  Broyden damping             0.4000000          :
          :  net charge                          0          :
          :  unpaired electrons                  0          :
          ...................................................

 iter      E             dE          RMSdq      gap      omega  full diag
   1    -16.0464199 -0.160464E+02  0.203E-01    5.27       0.0  T
   2    -16.0464219 -0.202420E-05  0.121E-01    5.27       1.0  T
   3    -16.0464200  0.194152E-05  0.139E-02    5.27       1.9  T
   4    -16.0464222 -0.228885E-05  0.460E-03    5.27       5.6  T
   5    -16.0464224 -0.188524E-06  0.153E-03    5.27      16.8  T
   6    -16.0464224 -0.853330E-09  0.368E-04    5.27      70.2  T
   7    -16.0464224 -0.977707E-10  0.812E-05    5.27     318.0  T
   8    -16.0464224 -0.770584E-11  0.238E-05    5.27    1084.8  T

   *** convergence criteria satisfied after 8 iterations ***

         #    Occupation            Energy/Eh            Energy/eV
      -------------------------------------------------------------
         1        2.0000           -0.6189056             -16.8413
       ...           ...                  ...                  ...
         9        2.0000           -0.4755117             -12.9393
        10        2.0000           -0.4657954             -12.6749
        11        2.0000           -0.4571374             -12.4393
        12        2.0000           -0.4378028             -11.9132
        13        2.0000           -0.4283102             -11.6549
        14        2.0000           -0.4211807             -11.4609
        15        2.0000           -0.3825806             -10.4105 (HOMO)
        16                         -0.1889460              -5.1415 (LUMO)
        17                          0.0901159               2.4522
        18                          0.1212358               3.2990
        19                          0.1393627               3.7923
        20                          0.1662392               4.5236
       ...                                ...                  ...
        30                          0.6562225              17.8567
      -------------------------------------------------------------
                  HL-Gap            0.1936346 Eh            5.2691 eV
             Fermi-level           -0.2857633 Eh           -7.7760 eV

 SCC (total)                   0 d,  0 h,  0 min,  0.014 sec
 SCC setup                      ...        0 min,  0.000 sec (  0.947%)
 Dispersion                     ...        0 min,  0.000 sec (  0.412%)
 classical contributions        ...        0 min,  0.000 sec (  0.122%)
 integral evaluation            ...        0 min,  0.000 sec (  1.916%)
 iterations                     ...        0 min,  0.011 sec ( 81.657%)
 molecular gradient             ...        0 min,  0.002 sec ( 13.329%)
 printout                       ...        0 min,  0.000 sec (  1.483%)

         :::::::::::::::::::::::::::::::::::::::::::::::::::::
         ::                     SUMMARY                     ::
         :::::::::::::::::::::::::::::::::::::::::::::::::::::
         :: total energy             -15.775497439805 Eh    ::
         :: gradient norm              0.010919512439 Eh/a0 ::
         :: HOMO-LUMO gap              5.269066453865 eV    ::
         ::.................................................::
         :: SCC energy               -16.046418796104 Eh    ::
         :: -> isotropic ES            0.003093357012 Eh    ::
         :: -> anisotropic ES          0.004966112438 Eh    ::
         :: -> anisotropic XC          0.011370928512 Eh    ::
         :: -> dispersion             -0.007228679177 Eh    ::
         :: repulsion energy           0.270921356299 Eh    ::
         :: add. restraining           0.000000000000 Eh    ::
         :: total charge               0.000000000000 e     ::
         :::::::::::::::::::::::::::::::::::::::::::::::::::::


Property printout bound to 'properties.out'

           -------------------------------------------------
          | TOTAL ENERGY              -15.775497439805 Eh   |
          | GRADIENT NORM               0.010919512439 Eh/α |
          | HOMO-LUMO GAP               5.269066453865 eV   |
           -------------------------------------------------

------------------------------------------------------------------------
 * finished run on 2026/09/19 at 20:17:01.171     
------------------------------------------------------------------------
 total:
 * wall-time:     0 d,  0 h,  0 min,  0.023 sec
 *  cpu-time:     0 d,  0 h,  0 min,  0.151 sec
 * ratio c/w:     6.580 speedup
 SCF:
 * wall-time:     0 d,  0 h,  0 min,  0.014 sec
 *  cpu-time:     0 d,  0 h,  0 min,  0.098 sec
 * ratio c/w:     7.031 speedup


-------------------------   --------------------
FINAL SINGLE POINT ENERGY       -15.775497439810
-------------------------   --------------------


-------------
DIPOLE MOMENT
-------------
                                X             Y             Z
Total Dipole Moment    :     -0.02300      -0.01400       0.00600
                        -----------------------------------------
Magnitude (a.u.)       :      0.02759
Magnitude (Debye)      :      0.07012


------------------
CARTESIAN GRADIENT
------------------

   1   C   :   -0.000614694    0.002222380    0.001237232
   2   C   :    0.003787181   -0.002340124    0.002590218
   3   C   :   -0.003090664    0.001282758   -0.001395111
   4   C   :    0.002499531    0.000770569   -0.001120043
   5   C   :   -0.005170057   -0.000686548    0.000797786
   6   H   :    0.001442605   -0.000607074   -0.000927584
   7   H   :   -0.001117813    0.001304104    0.000318066
   8   H   :   -0.002116557   -0.001601880   -0.001955067
   9   H   :   -0.000361421    0.000483222    0.000377524
  10   H   :    0.000756609   -0.000052293   -0.000080659
  11   H   :   -0.001605536   -0.000559166   -0.000069018
  12   H   :    0.001132992    0.000644729   -0.000268028
  13   H   :    0.000765936   -0.001365195    0.001384328
  14   H   :    0.000861764    0.000000027   -0.000565796
  15   H   :    0.002830126    0.000504491   -0.000323847

Difference to translation invariance:
           :    0.0000000000   -0.0000000000    0.0000000000

Difference to rotation invariance:
           :   -0.0000000222    0.0000000003   -0.0000000112

Norm of the Cartesian gradient     ...    0.0109195124
RMS gradient                       ...    0.0016277848
MAX gradient                       ...    0.0051700575
------------------------------------------------------------------------------
                         ORCA GEOMETRY RELAXATION STEP
------------------------------------------------------------------------------

Reading the OPT-File                    .... done
Getting information on internals        .... done
Copying old internal coords+grads       .... done
Making the new internal coordinates     .... (2022 redundants) done
Validating the new internal coordinates .... (2022 redundants) done
Calculating the B-matrix                .... done
Calculating the G,G- and P matrices     .... done
Transforming gradient to internals      .... done
Projecting the internal gradient        .... done
Number of atoms                         ....  15
Number of internal coordinates          ....  58
Current Energy                          ....   -15.775497440 Eh
Current gradient norm                   ....     0.010919512 Eh/bohr
Maximum allowed component of the step   ....  0.300
Current trust radius                    ....  0.450
Updating the Hessian (BFGS)             .... done
Forming the augmented Hessian           .... done
Diagonalizing the augmented Hessian     .... done
Last element of RFO vector              ....  0.936560692
Lowest eigenvalues of augmented Hessian:
 -0.000713471  0.002920893  0.014614805  0.015513364  0.028472995
Length of the computed step             ....  0.374247450
The final length of the internal step   ....  0.374247450
Converting the step to Cartesian space:
 Initial RMS(Int)=    0.0491410976
Transforming coordinates:
 Iter   0:  RMS(Cart)=    0.0704990548 RMS(Int)=    0.0490300423
 Iter   5:  RMS(Cart)=    0.0000004453 RMS(Int)=    0.0000003665
done
Storing new coordinates                 .... done
The predicted energy change is          ....    -0.000406701
Previously predicted energy change      ....    -0.000657853
Actually observed energy change         ....    -0.000773574
Ratio of predicted to observed change   ....     1.175906865
New trust radius                        ....     0.675000000

                                .--------------------.
          ----------------------|Geometry convergence|-------------------------
          Item                value                   Tolerance       Converged
          ---------------------------------------------------------------------
          Energy change      -0.0007735744            0.0000050000      NO
          RMS gradient        0.0011303819            0.0001000000      NO
          MAX gradient        0.0034511006            0.0003000000      NO
          RMS step            0.0491410976            0.0020000000      NO
          MAX step            0.1324454793            0.0040000000      NO
          -------------------------------------------------------------------------
          ........................................................
          Max(Bonds)      0.0037      Max(Angles)    0.59
          Max(Dihed)        7.59      Max(Improp)    0.00
          ---------------------------------------------------------------------

    ---------------------------------------------------------------------------
                         Redundant Internal Coordinates
                            (Angstroem and degrees)

        Definition                    Value    dE/dq     Step     New-Value
    ----------------------------------------------------------------------------
     1. B(C   1,C   0)                1.4960  0.001661 -0.0036    1.4925   
     2. B(C   2,C   1)                1.3199 -0.001606  0.0005    1.3204   
     3. B(C   3,C   2)                1.4989  0.001291 -0.0014    1.4975   
     4. B(C   4,C   3)                1.5262 -0.000187 -0.0037    1.5225   
     5. B(H   5,C   0)                1.0862 -0.000587  0.0011    1.0873   
     6. B(H   6,C   0)                1.0917 -0.000130  0.0014    1.0931   
     7. B(H   7,C   0)                1.0871 -0.000765  0.0021    1.0892   
     8. B(H   8,C   1)                1.0835 -0.000087  0.0010    1.0845   
     9. B(H   9,C   2)                1.0832 -0.000108  0.0004    1.0837   
    10. B(H  10,C   3)                1.0911 -0.000243  0.0004    1.0915   
    11. B(H  11,C   3)                1.0939 -0.000344  0.0009    1.0948   
    12. B(H  12,C   4)                1.0900  0.000422  0.0001    1.0901   
    13. B(H  13,C   4)                1.0873 -0.000136  0.0009    1.0882   
    14. B(H  14,C   4)                1.0871 -0.000643  0.0022    1.0893   
    15. A(H   6,C   0,H   7)          106.14 -0.003061    0.35    106.49   
    16. A(C   1,C   0,H   5)          110.21 -0.002307    0.23    110.45   
    17. A(C   1,C   0,H   6)          110.35  0.001334   -0.18    110.17   
    18. A(C   1,C   0,H   7)          111.44  0.002116   -0.33    111.10   
    19. A(H   5,C   0,H   6)          108.41  0.000275    0.12    108.53   
    20. A(H   5,C   0,H   7)          110.18  0.001625   -0.17    110.01   
    21. A(C   2,C   1,H   8)          119.76 -0.000342    0.11    119.86   
    22. A(C   0,C   1,H   8)          115.00 -0.001436   -0.02    114.98   
    23. A(C   0,C   1,C   2)          125.21  0.001783   -0.08    125.13   
    24. A(C   3,C   2,H   9)          114.77 -0.000992   -0.08    114.69   
    25. A(C   1,C   2,H   9)          120.24  0.000512    0.23    120.47   
    26. A(C   1,C   2,C   3)          124.97  0.000482   -0.16    124.82   
    27. A(C   4,C   3,H  10)          110.56  0.001587   -0.36    110.19   
    28. A(C   2,C   3,H  10)          109.30 -0.001062    0.23    109.53   
    29. A(C   2,C   3,C   4)          111.34 -0.000153   -0.17    111.17   
    30. A(H  10,C   3,H  11)          107.80 -0.000222    0.19    107.99   
    31. A(C   4,C   3,H  11)          108.44 -0.001090    0.14    108.58   
    32. A(C   2,C   3,H  11)          109.32  0.000944   -0.01    109.31   
    33. A(H  13,C   4,H  14)          108.52 -0.000036   -0.07    108.45   
    34. A(H  12,C   4,H  14)          106.79 -0.003451    0.59    107.38   
    35. A(C   3,C   4,H  14)          111.72  0.003202   -0.42    111.30   
    36. A(H  12,C   4,H  13)          108.28 -0.000353    0.07    108.35   
    37. A(C   3,C   4,H  13)          110.79  0.000526   -0.13    110.67   
    38. A(C   3,C   4,H  12)          110.59 -0.000114   -0.04    110.55   
    39. D(C   2,C   1,C   0,H   5)     17.33 -0.000087   -4.78     12.55   
    40. D(C   2,C   1,C   0,H   6)   -102.37  0.000192   -4.97   -107.34   
    41. D(H   8,C   1,C   0,H   6)     75.62  0.000339   -4.72     70.89   
    42. D(C   2,C   1,C   0,H   7)    139.98  0.001824   -5.07    134.91   
    43. D(H   8,C   1,C   0,H   5)   -164.68  0.000060   -4.54   -169.22   
    44. D(C   3,C   2,C   1,C   0)    178.84 -0.000126    0.60    179.44   
    45. D(C   3,C   2,C   1,H   8)      0.94 -0.000262    0.35      1.29   
    46. D(H   9,C   2,C   1,H   8)    179.67 -0.000205    0.05    179.72   
    47. D(H   9,C   2,C   1,C   0)     -2.43 -0.000068    0.29     -2.14   
    48. D(H  11,C   3,C   2,C   1)   -120.40 -0.000170   -0.45   -120.86   
    49. D(H  10,C   3,C   2,H   9)    178.58 -0.000577    0.19    178.77   
    50. D(H  10,C   3,C   2,C   1)     -2.63 -0.000507   -0.09     -2.72   
    51. D(C   4,C   3,C   2,H   9)    -58.99  0.000597   -0.23    -59.22   
    52. D(C   4,C   3,C   2,C   1)    119.80  0.000667   -0.51    119.29   
    53. D(H  12,C   4,C   3,C   2)    170.57 -0.000113    7.57    178.14   
    54. D(H  13,C   4,C   3,H  11)    170.33 -0.000655    7.56    177.89   
    55. D(H  13,C   4,C   3,H  10)     52.35 -0.000645    7.46     59.81   
    56. D(H  13,C   4,C   3,C   2)    -69.35 -0.000287    7.54    -61.81   
    57. D(H  12,C   4,C   3,H  11)     50.26 -0.000481    7.59     57.85   
    58. D(H  12,C   4,C   3,H  10)    -67.72 -0.000471    7.49    -60.23   
    ----------------------------------------------------------------------------

Geometry step timings:
Preparation and reading OPT file:      0.000 s ( 1.052 %)
Internal coordinates            :      0.000 s ( 1.262 %)
B/P matrices and projection     :      0.000 s (34.853 %)
Hessian update/contruction      :      0.000 s (12.763 %)
Making the step                 :      0.000 s (23.282 %)
Converting the step to Cartesian:      0.000 s ( 3.787 %)
Storing new data                :      0.000 s ( 1.403 %)
Checking convergence            :      0.000 s ( 1.964 %)
Final printing                  :      0.000 s (19.635 %)
Total time                      :      0.001 s

Time for energy+gradient        :      0.030 s
Time for complete geometry iter :      0.032 s

         *************************************************************
         *                GEOMETRY OPTIMIZATION CYCLE   6            *
         *************************************************************
---------------------------------
CARTESIAN COORDINATES (ANGSTROEM)
---------------------------------
  C    -2.506148    0.440019    0.393576
  C    -1.166464    0.337072   -0.256093
  C    -0.162438   -0.397971    0.185516
  C     1.175396   -0.505453   -0.478614
  C     2.286929   -0.021845    0.442513
  H    -2.478628    0.008433    1.391183
  H    -3.253473   -0.096637   -0.196627
  H    -2.838523    1.475987    0.444815
  H    -1.058193    0.903102   -1.174751
  H    -0.258279   -0.963892    1.104672
  H     1.171924    0.075992   -1.402335
  H     1.367819   -1.551444   -0.738243
  H     3.258747   -0.135047   -0.038274
  H     2.148804    1.028138    0.692807
  H     2.312528   -0.596454    1.367580

----------------------------
CARTESIAN COORDINATES (A.U.)
----------------------------
  NO LB    ZA    FRAG    MASS        X           Y           Z
   0 C   6.0000    1    12.011   -4.735934    0.831515    0.743750
   1 C   6.0000    1    12.011   -2.204298    0.636975   -0.483946
   2 C   6.0000    1    12.011   -0.306964   -0.752056    0.350575
   3 C   6.0000    1    12.011    2.221177   -0.955167   -0.904449
   4 C   6.0000    1    12.011    4.321670   -0.041281    0.836228
   5 H   1.0000    1     1.008   -4.683928    0.015937    2.628955
   6 H   1.0000    1     1.008   -6.148174   -0.182618   -0.371572
   7 H   1.0000    1     1.008   -5.364031    2.789211    0.840578
   8 H   1.0000    1     1.008   -1.999695    1.706616   -2.219958
   9 H   1.0000    1     1.008   -0.488077   -1.821492    2.087527
  10 H   1.0000    1     1.008    2.214615    0.143603   -2.650028
  11 H   1.0000    1     1.008    2.584804   -2.931805   -1.395078
  12 H   1.0000    1     1.008    6.158139   -0.255201   -0.072328
  13 H   1.0000    1     1.008    4.060650    1.942899    1.309216
  14 H   1.0000    1     1.008    4.370045   -1.127135    2.584352

      -----------------------------------------------------------      
     |                   =====================                   |     
     |                           x T B                           |     
     |                   =====================                   |     
     |                         S. Grimme                         |     
     |          Mulliken Center for Theoretical Chemistry        |     
     |                    University of Bonn                     |     
      -----------------------------------------------------------      

   * xtb version 6.7.1 (edcfbbe) compiled by 'albert@albert-system' on 2024-07-22

   xtb is free software: you can redistribute it and/or modify it under
   the terms of the GNU Lesser General Public License as published by
   the Free Software Foundation, either version 3 of the License, or
   (at your option) any later version.
   
   xtb is distributed in the hope that it will be useful,
   but WITHOUT ANY WARRANTY; without even the implied warranty of
   MERCHANTABILITY or FITNESS FOR A PARTICULAR PURPOSE.  See the
   GNU Lesser General Public License for more details.
   
   Cite this work as:
   * C. Bannwarth, E. Caldeweyher, S. Ehlert, A. Hansen, P. Pracht,
     J. Seibert, S. Spicher, S. Grimme, WIREs Comput. Mol. Sci., 2020, 11,
     e01493. DOI: 10.1002/wcms.1493
   
   for GFN2-xTB:
   * C. Bannwarth, S. Ehlert and S. Grimme., J. Chem. Theory Comput., 2019,
     15, 1652-1671. DOI: 10.1021/acs.jctc.8b01176
   for GFN1-xTB:
   * S. Grimme, C. Bannwarth, P. Shushkov, J. Chem. Theory Comput., 2017,
     13, 1989-2009. DOI: 10.1021/acs.jctc.7b00118
   for GFN0-xTB:
   * P. Pracht, E. Caldeweyher, S. Ehlert, S. Grimme, ChemRxiv, 2019, preprint.
     DOI: 10.26434/chemrxiv.8326202.v1
   for GFN-FF:
   * S. Spicher and S. Grimme, Angew. Chem. Int. Ed., 2020, 59, 15665-15673.
     DOI: 10.1002/anie.202004239
   
   for ALPB and GBSA implicit solvation:
   * S. Ehlert, M. Stahn, S. Spicher, S. Grimme, J. Chem. Theory Comput.,
     2021, 17, 4250-4261. DOI: 10.1021/acs.jctc.1c00471
   
   for ddCOSMO and CPCM-X implicit solvation:
   * M. Stahn, S. Ehlert, S. Grimme, J. Phys. Chem. A,
     2023, XX, XXXX-XXXX. DOI: 10.1021/acs.jpca.3c04382
   
   for DFT-D4:
   * E. Caldeweyher, C. Bannwarth and S. Grimme, J. Chem. Phys., 2017,
     147, 034112. DOI: 10.1063/1.4993215
   * E. Caldeweyher, S. Ehlert, A. Hansen, H. Neugebauer, S. Spicher,
     C. Bannwarth and S. Grimme, J. Chem. Phys., 2019, 150, 154122.
     DOI: 10.1063/1.5090222
   * E. Caldeweyher, J.-M. Mewes, S. Ehlert and S. Grimme, Phys. Chem. Chem. Phys.
     2020, 22, 8499-8512. DOI: 10.1039/D0CP00502A
   
   for sTDA-xTB:
   * S. Grimme and C. Bannwarth, J. Chem. Phys., 2016, 145, 054103.
     DOI: 10.1063/1.4959605
   
   in the mass-spec context:
   * V. Asgeirsson, C. Bauer and S. Grimme, Chem. Sci., 2017, 8, 4879.
     DOI: 10.1039/c7sc00601b
   * J. Koopman and S. Grimme, ACS Omega 2019, 4, 12, 15120-15133.
     DOI: 10.1021/acsomega.9b02011
   
   for metadynamics refer to:
   * S. Grimme, J. Chem. Theory Comput., 2019, 155, 2847-2862
     DOI: 10.1021/acs.jctc.9b00143
   
   for SPH calculations refer to:
   * S. Spicher and S. Grimme, J. Chem. Theory Comput., 2021, 17, 1701-1714
     DOI: 10.1021/acs.jctc.0c01306
   
   for ONIOM refer to:
   * C. Plett, A. Katbashev, S. Ehlert, S. Grimme, M. Bursch,
     Phys. Chem. Chem. Phys., 2023, 25, 17860-17868. DOI: 10.1039/D3CP02178E
   
   for DIPRO refer to:
   * J. Kohn, N. Gildemeister, S. Grimme, D. Fazzi, A. Hansen,
     J. Chem. Phys., 2023, just accepted.
   
   for PTB refer to:
   * S. Grimme, M. Mueller, A. Hansen, J. Chem. Phys., 2023, 158, 124111.
     DOI: 10.1063/5.0137838
   
   with help from (in alphabetical order)
   P. Atkinson, C. Bannwarth, F. Bohle, G. Brandenburg, E. Caldeweyher
   M. Checinski, S. Dohm, S. Ehlert, S. Ehrlich, I. Gerasimov, C. Hölzer
   A. Katbashev, J. Kohn, J. Koopman, C. Lavigne, S. Lehtola, F. März, M. Müller,
   F. Musil, H. Neugebauer, J. Pisarek, C. Plett, P. Pracht, F. Pultar,
   J. Seibert, P. Shushkov, S. Spicher, M. Stahn, M. Steiner, T. Strunk,
   J. Stückrath, T. Rose, and J. Unsleber
   
 * started run on 2026/09/19 at 20:17:01.180     
   ID    Z sym.   atoms
    1    6 C      1-5
    2    1 H      6-15

           -------------------------------------------------
          |                Calculation Setup                |
           -------------------------------------------------

          program call               : /apps/eb/ORCA/6.1.1-gompi-2023b-avx2/bin/otool_xtb goat_XTB.xyz --grad -c 0 -u 0 -P 8 --namespace goat --input goat_XTB.input.tmp --acc 0.200000
          hostname                   : b3-21
          calculation namespace      : goat
          coordinate file            : goat_XTB.xyz
          omp threads                :                     8


           -------------------------------------------------
          |                 G F N 2 - x T B                 |
           -------------------------------------------------

        Reference                      10.1021/acs.jctc.8b01176
      * Hamiltonian:
        H0-scaling (s, p, d)           1.850000    2.230000    2.230000
        zeta-weighting                 0.500000
      * Dispersion:
        s8                             2.700000
        a1                             0.520000
        a2                             5.000000
        s9                             5.000000
      * Repulsion:
        kExp                           1.500000    1.000000
        rExp                           1.000000
      * Coulomb:
        alpha                          2.000000
        third order                    shell-resolved
        anisotropic                    true
        a3                             3.000000
        a5                             4.000000
        cn-shift                       1.200000
        cn-exp                         4.000000
        max-rad                        5.000000

q/qsh data taken from xtbrestart
CAMM data taken from xtbrestart

          ...................................................
          :                      SETUP                      :
          :.................................................:
          :  # basis functions                  30          :
          :  # atomic orbitals                  30          :
          :  # shells                           20          :
          :  # electrons                        30          :
          :  max. iterations                   250          :
          :  Hamiltonian                  GFN2-xTB          :
          :  restarted?                       true          :
          :  GBSA solvation                  false          :
          :  PC potential                    false          :
          :  electronic temp.          300.0000000     K    :
          :  accuracy                    0.2000000          :
          :  -> integral cutoff          0.3198970E+02      :
          :  -> integral neglect         0.2000000E-08      :
          :  -> SCF convergence          0.2000000E-06 Eh   :
          :  -> wf. convergence          0.2000000E-04 e    :
          :  Broyden damping             0.4000000          :
          :  net charge                          0          :
          :  unpaired electrons                  0          :
          ...................................................

 iter      E             dE          RMSdq      gap      omega  full diag
   1    -16.0462585 -0.160463E+02  0.171E-01    5.27       0.0  T
   2    -16.0462597 -0.123460E-05  0.102E-01    5.27       1.0  T
   3    -16.0462587  0.993846E-06  0.104E-02    5.27       2.5  T
   4    -16.0462600 -0.123707E-05  0.359E-03    5.27       7.2  T
   5    -16.0462601 -0.107286E-06  0.133E-03    5.27      19.5  T
   6    -16.0462601 -0.998565E-09  0.324E-04    5.27      79.8  T
   7    -16.0462601 -0.106603E-09  0.740E-05    5.27     348.8  T
   8    -16.0462601 -0.555289E-11  0.233E-05    5.27    1108.0  T

   *** convergence criteria satisfied after 8 iterations ***

         #    Occupation            Energy/Eh            Energy/eV
      -------------------------------------------------------------
         1        2.0000           -0.6191719             -16.8485
       ...           ...                  ...                  ...
         9        2.0000           -0.4757963             -12.9471
        10        2.0000           -0.4660829             -12.6828
        11        2.0000           -0.4568610             -12.4318
        12        2.0000           -0.4377341             -11.9114
        13        2.0000           -0.4279776             -11.6459
        14        2.0000           -0.4211874             -11.4611
        15        2.0000           -0.3825302             -10.4092 (HOMO)
        16                         -0.1887981              -5.1375 (LUMO)
        17                          0.0937543               2.5512
        18                          0.1202897               3.2732
        19                          0.1435427               3.9060
        20                          0.1663042               4.5254
       ...                                ...                  ...
        30                          0.6560160              17.8511
      -------------------------------------------------------------
                  HL-Gap            0.1937321 Eh            5.2717 eV
             Fermi-level           -0.2856641 Eh           -7.7733 eV

 SCC (total)                   0 d,  0 h,  0 min,  0.010 sec
 SCC setup                      ...        0 min,  0.001 sec (  5.588%)
 Dispersion                     ...        0 min,  0.000 sec (  2.266%)
 classical contributions        ...        0 min,  0.000 sec (  1.328%)
 integral evaluation            ...        0 min,  0.000 sec (  3.874%)
 iterations                     ...        0 min,  0.007 sec ( 72.448%)
 molecular gradient             ...        0 min,  0.001 sec ( 12.747%)
 printout                       ...        0 min,  0.000 sec (  1.526%)

         :::::::::::::::::::::::::::::::::::::::::::::::::::::
         ::                     SUMMARY                     ::
         :::::::::::::::::::::::::::::::::::::::::::::::::::::
         :: total energy             -15.775985899102 Eh    ::
         :: gradient norm              0.009316722961 Eh/a0 ::
         :: HOMO-LUMO gap              5.271718781021 eV    ::
         ::.................................................::
         :: SCC energy               -16.046256141737 Eh    ::
         :: -> isotropic ES            0.003074717197 Eh    ::
         :: -> anisotropic ES          0.004947574379 Eh    ::
         :: -> anisotropic XC          0.011424724650 Eh    ::
         :: -> dispersion             -0.007241617711 Eh    ::
         :: repulsion energy           0.270270242635 Eh    ::
         :: add. restraining           0.000000000000 Eh    ::
         :: total charge               0.000000000000 e     ::
         :::::::::::::::::::::::::::::::::::::::::::::::::::::


Property printout bound to 'properties.out'

           -------------------------------------------------
          | TOTAL ENERGY              -15.775985899102 Eh   |
          | GRADIENT NORM               0.009316722961 Eh/α |
          | HOMO-LUMO GAP               5.271718781021 eV   |
           -------------------------------------------------

------------------------------------------------------------------------
 * finished run on 2026/09/19 at 20:17:01.209     
------------------------------------------------------------------------
 total:
 * wall-time:     0 d,  0 h,  0 min,  0.028 sec
 *  cpu-time:     0 d,  0 h,  0 min,  0.160 sec
 * ratio c/w:     5.672 speedup
 SCF:
 * wall-time:     0 d,  0 h,  0 min,  0.010 sec
 *  cpu-time:     0 d,  0 h,  0 min,  0.067 sec
 * ratio c/w:     6.662 speedup


-------------------------   --------------------
FINAL SINGLE POINT ENERGY       -15.775985899100
-------------------------   --------------------


-------------
DIPOLE MOMENT
-------------
                                X             Y             Z
Total Dipole Moment    :     -0.02400      -0.00500       0.00700
                        -----------------------------------------
Magnitude (a.u.)       :      0.02550
Magnitude (Debye)      :      0.06480


------------------
CARTESIAN GRADIENT
------------------

   1   C   :    0.001527829    0.001567561    0.000756766
   2   C   :    0.001835083   -0.001677144    0.002520459
   3   C   :   -0.002426481    0.000981942   -0.001104160
   4   C   :    0.002578025    0.001421188    0.000681783
   5   C   :   -0.005458989   -0.001016611   -0.001400299
   6   H   :    0.001205210   -0.000871652   -0.000209228
   7   H   :   -0.001237722    0.000399815   -0.000424550
   8   H   :   -0.001710250   -0.000160582   -0.001683952
   9   H   :   -0.000481786    0.000735476   -0.000262383
  10   H   :    0.001046062   -0.000387343    0.000218957
  11   H   :   -0.000797790   -0.000286892    0.000015266
  12   H   :    0.000766391   -0.000036460    0.000118504
  13   H   :    0.000954668   -0.000724216    0.000365157
  14   H   :    0.000386747    0.000363707   -0.000127996
  15   H   :    0.001813004   -0.000308791    0.000535676

Difference to translation invariance:
           :   -0.0000000000    0.0000000000    0.0000000000

Difference to rotation invariance:
           :   -0.0000000271   -0.0000000038    0.0000000015

Norm of the Cartesian gradient     ...    0.0093167230
RMS gradient                       ...    0.0013888551
MAX gradient                       ...    0.0054589890
------------------------------------------------------------------------------
                         ORCA GEOMETRY RELAXATION STEP
------------------------------------------------------------------------------

Reading the OPT-File                    .... done
Getting information on internals        .... done
Copying old internal coords+grads       .... done
Making the new internal coordinates     .... (2022 redundants) done
Validating the new internal coordinates .... (2022 redundants) done
Calculating the B-matrix                .... done
Calculating the G,G- and P matrices     .... done
Transforming gradient to internals      .... done
Projecting the internal gradient        .... done
Number of atoms                         ....  15
Number of internal coordinates          ....  58
Current Energy                          ....   -15.775985899 Eh
Current gradient norm                   ....     0.009316723 Eh/bohr
Maximum allowed component of the step   ....  0.300
Current trust radius                    ....  0.675
Updating the Hessian (BFGS)             .... done
Forming the augmented Hessian           .... done
Diagonalizing the augmented Hessian     .... done
Last element of RFO vector              ....  0.982501428
Lowest eigenvalues of augmented Hessian:
 -0.000333638  0.002801285  0.014386786  0.015509070  0.028377344
Length of the computed step             ....  0.189572297
The final length of the internal step   ....  0.189572297
Converting the step to Cartesian space:
 Initial RMS(Int)=    0.0248920620
Transforming coordinates:
 Iter   0:  RMS(Cart)=    0.0356320419 RMS(Int)=    1.1573729369
done
Storing new coordinates                 .... done
The predicted energy change is          ....    -0.000172814
Previously predicted energy change      ....    -0.000406701
Actually observed energy change         ....    -0.000488459
Ratio of predicted to observed change   ....     1.201029410
New trust radius                        ....     0.700000000

                                .--------------------.
          ----------------------|Geometry convergence|-------------------------
          Item                value                   Tolerance       Converged
          ---------------------------------------------------------------------
          Energy change      -0.0004884593            0.0000050000      NO
          RMS gradient        0.0008610242            0.0001000000      NO
          MAX gradient        0.0025977190            0.0003000000      NO
          RMS step            0.0248920620            0.0020000000      NO
          MAX step            0.0739977135            0.0040000000      NO
          -------------------------------------------------------------------------
          ........................................................
          Max(Bonds)      0.0025      Max(Angles)    0.85
          Max(Dihed)        4.24      Max(Improp)    0.00
          ---------------------------------------------------------------------

    ---------------------------------------------------------------------------
                         Redundant Internal Coordinates
                            (Angstroem and degrees)

        Definition                    Value    dE/dq     Step     New-Value
    ----------------------------------------------------------------------------
     1. B(C   1,C   0)                1.4925 -0.000422 -0.0011    1.4913   
     2. B(C   2,C   1)                1.3204 -0.001102  0.0011    1.3215   
     3. B(C   3,C   2)                1.4975  0.000175 -0.0013    1.4962   
     4. B(C   4,C   3)                1.5225 -0.002598  0.0025    1.5249   
     5. B(H   5,C   0)                1.0873  0.000185  0.0005    1.0879   
     6. B(H   6,C   0)                1.0931  0.000879 -0.0007    1.0924   
     7. B(H   7,C   0)                1.0892  0.000290  0.0008    1.0900   
     8. B(H   8,C   1)                1.0845  0.000558 -0.0004    1.0841   
     9. B(H   9,C   2)                1.0837  0.000295 -0.0002    1.0835   
    10. B(H  10,C   3)                1.0915 -0.000163  0.0004    1.0919   
    11. B(H  11,C   3)                1.0948  0.000141  0.0000    1.0948   
    12. B(H  12,C   4)                1.0901  0.000765 -0.0014    1.0888   
    13. B(H  13,C   4)                1.0882  0.000272  0.0001    1.0883   
    14. B(H  14,C   4)                1.0893  0.000660  0.0002    1.0895   
    15. A(H   6,C   0,H   7)          106.48 -0.002043    0.83    107.32   
    16. A(C   1,C   0,H   5)          110.44 -0.001805    0.45    110.89   
    17. A(C   1,C   0,H   6)          110.17  0.000591   -0.13    110.04   
    18. A(C   1,C   0,H   7)          111.10  0.001329   -0.49    110.62   
    19. A(H   5,C   0,H   6)          108.53  0.000384    0.01    108.55   
    20. A(H   5,C   0,H   7)          110.00  0.001548   -0.67    109.34   
    21. A(C   2,C   1,H   8)          119.87  0.000132    0.01    119.88   
    22. A(C   0,C   1,H   8)          114.98 -0.001245    0.26    115.25   
    23. A(C   0,C   1,C   2)          125.13  0.001116   -0.27    124.86   
    24. A(C   3,C   2,H   9)          114.69 -0.001068    0.21    114.90   
    25. A(C   1,C   2,H   9)          120.47  0.001156   -0.15    120.32   
    26. A(C   1,C   2,C   3)          124.82 -0.000088   -0.06    124.76   
    27. A(C   4,C   3,H  10)          110.19  0.000914   -0.44    109.75   
    28. A(C   2,C   3,H  10)          109.53 -0.000567    0.24    109.77   
    29. A(C   2,C   3,C   4)          111.17 -0.000309   -0.02    111.15   
    30. A(H  10,C   3,H  11)          107.99  0.000023    0.08    108.06   
    31. A(C   4,C   3,H  11)          108.58 -0.000774    0.30    108.88   
    32. A(C   2,C   3,H  11)          109.32  0.000725   -0.15    109.16   
    33. A(H  13,C   4,H  14)          108.46  0.000358   -0.12    108.34   
    34. A(H  12,C   4,H  14)          107.39 -0.002341    0.85    108.23   
    35. A(C   3,C   4,H  14)          111.31  0.001873   -0.65    110.66   
    36. A(H  12,C   4,H  13)          108.35 -0.000190    0.11    108.45   
    37. A(C   3,C   4,H  13)          110.67  0.000586   -0.20    110.47   
    38. A(C   3,C   4,H  12)          110.55 -0.000404    0.05    110.60   
    39. D(C   2,C   1,C   0,H   5)     12.55 -0.000136   -3.37      9.18   
    40. D(C   2,C   1,C   0,H   6)   -107.34  0.000159   -3.59   -110.93   
    41. D(H   8,C   1,C   0,H   6)     70.89  0.000277   -3.17     67.72   
    42. D(C   2,C   1,C   0,H   7)    134.91  0.001494   -4.24    130.67   
    43. D(H   8,C   1,C   0,H   5)   -169.22 -0.000018   -2.95   -172.17   
    44. D(C   3,C   2,C   1,C   0)    179.44 -0.000031    0.46    179.90   
    45. D(C   3,C   2,C   1,H   8)      1.29 -0.000133    0.02      1.31   
    46. D(H   9,C   2,C   1,H   8)    179.72 -0.000136    0.06    179.78   
    47. D(H   9,C   2,C   1,C   0)     -2.13 -0.000034    0.50     -1.63   
    48. D(H  11,C   3,C   2,C   1)   -120.86 -0.000318    0.01   -120.85   
    49. D(H  10,C   3,C   2,H   9)    178.77 -0.000224    0.11    178.88   
    50. D(H  10,C   3,C   2,C   1)     -2.72 -0.000195    0.15     -2.57   
    51. D(C   4,C   3,C   2,H   9)    -59.22  0.000339   -0.29    -59.51   
    52. D(C   4,C   3,C   2,C   1)    119.29  0.000367   -0.25    119.04   
    53. D(H  12,C   4,C   3,C   2)    178.14  0.000172    2.95    181.09   
    54. D(H  13,C   4,C   3,H  11)    177.90 -0.000155    2.99    180.88   
    55. D(H  13,C   4,C   3,H  10)     59.81 -0.000249    2.98     62.79   
    56. D(H  13,C   4,C   3,C   2)    -61.81  0.000053    2.98    -58.83   
    57. D(H  12,C   4,C   3,H  11)     57.85 -0.000035    2.95     60.80   
    58. D(H  12,C   4,C   3,H  10)    -60.24 -0.000129    2.94    -57.30   
    ----------------------------------------------------------------------------

Geometry step timings:
Preparation and reading OPT file:      0.000 s ( 0.915 %)
Internal coordinates            :      0.000 s ( 1.111 %)
B/P matrices and projection     :      0.000 s (30.784 %)
Hessian update/contruction      :      0.000 s (12.745 %)
Making the step                 :      0.000 s (30.131 %)
Converting the step to Cartesian:      0.000 s ( 2.941 %)
Storing new data                :      0.000 s ( 1.307 %)
Checking convergence            :      0.000 s ( 1.895 %)
Final printing                  :      0.000 s (18.105 %)
Total time                      :      0.002 s

Time for energy+gradient        :      0.036 s
Time for complete geometry iter :      0.038 s

         *************************************************************
         *                GEOMETRY OPTIMIZATION CYCLE   7            *
         *************************************************************
---------------------------------
CARTESIAN COORDINATES (ANGSTROEM)
---------------------------------
  C    -2.501343    0.441791    0.391092
  C    -1.167168    0.327059   -0.265318
  C    -0.162499   -0.401935    0.188028
  C     1.174498   -0.517055   -0.473638
  C     2.286095   -0.013179    0.440641
  H    -2.490889   -0.022361    1.374905
  H    -3.261866   -0.052024   -0.217997
  H    -2.792465    1.487680    0.488502
  H    -1.058419    0.879884   -1.191470
  H    -0.262091   -0.954509    1.114694
  H     1.175933    0.052920   -1.404933
  H     1.365383   -1.567044   -0.717959
  H     3.252273   -0.083115   -0.056416
  H     2.113122    1.026225    0.712790
  H     2.329438   -0.604336    1.354804

----------------------------
CARTESIAN COORDINATES (A.U.)
----------------------------
  NO LB    ZA    FRAG    MASS        X           Y           Z
   0 C   6.0000    1    12.011   -4.726854    0.834864    0.739057
   1 C   6.0000    1    12.011   -2.205628    0.618052   -0.501378
   2 C   6.0000    1    12.011   -0.307079   -0.759548    0.355322
   3 C   6.0000    1    12.011    2.219480   -0.977092   -0.895047
   4 C   6.0000    1    12.011    4.320093   -0.024905    0.832691
   5 H   1.0000    1     1.008   -4.707099   -0.042257    2.598194
   6 H   1.0000    1     1.008   -6.164033   -0.098311   -0.411954
   7 H   1.0000    1     1.008   -5.276995    2.811307    0.923134
   8 H   1.0000    1     1.008   -2.000122    1.662740   -2.251552
   9 H   1.0000    1     1.008   -0.495281   -1.803761    2.106466
  10 H   1.0000    1     1.008    2.222191    0.100004   -2.654940
  11 H   1.0000    1     1.008    2.580199   -2.961284   -1.356746
  12 H   1.0000    1     1.008    6.145905   -0.157065   -0.106611
  13 H   1.0000    1     1.008    3.993222    1.939285    1.346978
  14 H   1.0000    1     1.008    4.402000   -1.142029    2.560208

      -----------------------------------------------------------      
     |                   =====================                   |     
     |                           x T B                           |     
     |                   =====================                   |     
     |                         S. Grimme                         |     
     |          Mulliken Center for Theoretical Chemistry        |     
     |                    University of Bonn                     |     
      -----------------------------------------------------------      

   * xtb version 6.7.1 (edcfbbe) compiled by 'albert@albert-system' on 2024-07-22

   xtb is free software: you can redistribute it and/or modify it under
   the terms of the GNU Lesser General Public License as published by
   the Free Software Foundation, either version 3 of the License, or
   (at your option) any later version.
   
   xtb is distributed in the hope that it will be useful,
   but WITHOUT ANY WARRANTY; without even the implied warranty of
   MERCHANTABILITY or FITNESS FOR A PARTICULAR PURPOSE.  See the
   GNU Lesser General Public License for more details.
   
   Cite this work as:
   * C. Bannwarth, E. Caldeweyher, S. Ehlert, A. Hansen, P. Pracht,
     J. Seibert, S. Spicher, S. Grimme, WIREs Comput. Mol. Sci., 2020, 11,
     e01493. DOI: 10.1002/wcms.1493
   
   for GFN2-xTB:
   * C. Bannwarth, S. Ehlert and S. Grimme., J. Chem. Theory Comput., 2019,
     15, 1652-1671. DOI: 10.1021/acs.jctc.8b01176
   for GFN1-xTB:
   * S. Grimme, C. Bannwarth, P. Shushkov, J. Chem. Theory Comput., 2017,
     13, 1989-2009. DOI: 10.1021/acs.jctc.7b00118
   for GFN0-xTB:
   * P. Pracht, E. Caldeweyher, S. Ehlert, S. Grimme, ChemRxiv, 2019, preprint.
     DOI: 10.26434/chemrxiv.8326202.v1
   for GFN-FF:
   * S. Spicher and S. Grimme, Angew. Chem. Int. Ed., 2020, 59, 15665-15673.
     DOI: 10.1002/anie.202004239
   
   for ALPB and GBSA implicit solvation:
   * S. Ehlert, M. Stahn, S. Spicher, S. Grimme, J. Chem. Theory Comput.,
     2021, 17, 4250-4261. DOI: 10.1021/acs.jctc.1c00471
   
   for ddCOSMO and CPCM-X implicit solvation:
   * M. Stahn, S. Ehlert, S. Grimme, J. Phys. Chem. A,
     2023, XX, XXXX-XXXX. DOI: 10.1021/acs.jpca.3c04382
   
   for DFT-D4:
   * E. Caldeweyher, C. Bannwarth and S. Grimme, J. Chem. Phys., 2017,
     147, 034112. DOI: 10.1063/1.4993215
   * E. Caldeweyher, S. Ehlert, A. Hansen, H. Neugebauer, S. Spicher,
     C. Bannwarth and S. Grimme, J. Chem. Phys., 2019, 150, 154122.
     DOI: 10.1063/1.5090222
   * E. Caldeweyher, J.-M. Mewes, S. Ehlert and S. Grimme, Phys. Chem. Chem. Phys.
     2020, 22, 8499-8512. DOI: 10.1039/D0CP00502A
   
   for sTDA-xTB:
   * S. Grimme and C. Bannwarth, J. Chem. Phys., 2016, 145, 054103.
     DOI: 10.1063/1.4959605
   
   in the mass-spec context:
   * V. Asgeirsson, C. Bauer and S. Grimme, Chem. Sci., 2017, 8, 4879.
     DOI: 10.1039/c7sc00601b
   * J. Koopman and S. Grimme, ACS Omega 2019, 4, 12, 15120-15133.
     DOI: 10.1021/acsomega.9b02011
   
   for metadynamics refer to:
   * S. Grimme, J. Chem. Theory Comput., 2019, 155, 2847-2862
     DOI: 10.1021/acs.jctc.9b00143
   
   for SPH calculations refer to:
   * S. Spicher and S. Grimme, J. Chem. Theory Comput., 2021, 17, 1701-1714
     DOI: 10.1021/acs.jctc.0c01306
   
   for ONIOM refer to:
   * C. Plett, A. Katbashev, S. Ehlert, S. Grimme, M. Bursch,
     Phys. Chem. Chem. Phys., 2023, 25, 17860-17868. DOI: 10.1039/D3CP02178E
   
   for DIPRO refer to:
   * J. Kohn, N. Gildemeister, S. Grimme, D. Fazzi, A. Hansen,
     J. Chem. Phys., 2023, just accepted.
   
   for PTB refer to:
   * S. Grimme, M. Mueller, A. Hansen, J. Chem. Phys., 2023, 158, 124111.
     DOI: 10.1063/5.0137838
   
   with help from (in alphabetical order)
   P. Atkinson, C. Bannwarth, F. Bohle, G. Brandenburg, E. Caldeweyher
   M. Checinski, S. Dohm, S. Ehlert, S. Ehrlich, I. Gerasimov, C. Hölzer
   A. Katbashev, J. Kohn, J. Koopman, C. Lavigne, S. Lehtola, F. März, M. Müller,
   F. Musil, H. Neugebauer, J. Pisarek, C. Plett, P. Pracht, F. Pultar,
   J. Seibert, P. Shushkov, S. Spicher, M. Stahn, M. Steiner, T. Strunk,
   J. Stückrath, T. Rose, and J. Unsleber
   
 * started run on 2026/09/19 at 20:17:01.218     
   ID    Z sym.   atoms
    1    6 C      1-5
    2    1 H      6-15

           -------------------------------------------------
          |                Calculation Setup                |
           -------------------------------------------------

          program call               : /apps/eb/ORCA/6.1.1-gompi-2023b-avx2/bin/otool_xtb goat_XTB.xyz --grad -c 0 -u 0 -P 8 --namespace goat --input goat_XTB.input.tmp --acc 0.200000
          hostname                   : b3-21
          calculation namespace      : goat
          coordinate file            : goat_XTB.xyz
          omp threads                :                     8


           -------------------------------------------------
          |                 G F N 2 - x T B                 |
           -------------------------------------------------

        Reference                      10.1021/acs.jctc.8b01176
      * Hamiltonian:
        H0-scaling (s, p, d)           1.850000    2.230000    2.230000
        zeta-weighting                 0.500000
      * Dispersion:
        s8                             2.700000
        a1                             0.520000
        a2                             5.000000
        s9                             5.000000
      * Repulsion:
        kExp                           1.500000    1.000000
        rExp                           1.000000
      * Coulomb:
        alpha                          2.000000
        third order                    shell-resolved
        anisotropic                    true
        a3                             3.000000
        a5                             4.000000
        cn-shift                       1.200000
        cn-exp                         4.000000
        max-rad                        5.000000

q/qsh data taken from xtbrestart
CAMM data taken from xtbrestart

          ...................................................
          :                      SETUP                      :
          :.................................................:
          :  # basis functions                  30          :
          :  # atomic orbitals                  30          :
          :  # shells                           20          :
          :  # electrons                        30          :
          :  max. iterations                   250          :
          :  Hamiltonian                  GFN2-xTB          :
          :  restarted?                       true          :
          :  GBSA solvation                  false          :
          :  PC potential                    false          :
          :  electronic temp.          300.0000000     K    :
          :  accuracy                    0.2000000          :
          :  -> integral cutoff          0.3198970E+02      :
          :  -> integral neglect         0.2000000E-08      :
          :  -> SCF convergence          0.2000000E-06 Eh   :
          :  -> wf. convergence          0.2000000E-04 e    :
          :  Broyden damping             0.4000000          :
          :  net charge                          0          :
          :  unpaired electrons                  0          :
          ...................................................

 iter      E             dE          RMSdq      gap      omega  full diag
   1    -16.0462036 -0.160462E+02  0.102E-01    5.27       0.0  T
   2    -16.0462039 -0.317440E-06  0.604E-02    5.27       1.0  T
   3    -16.0462039 -0.574608E-07  0.286E-03    5.27       9.0  T
   4    -16.0462040 -0.360235E-07  0.179E-03    5.27      14.5  T
   5    -16.0462040 -0.193401E-07  0.795E-04    5.27      32.5  T
   6    -16.0462040 -0.224938E-08  0.130E-04    5.27     198.3  T
   7    -16.0462040 -0.177529E-10  0.547E-05    5.27     472.4  T

   *** convergence criteria satisfied after 7 iterations ***

         #    Occupation            Energy/Eh            Energy/eV
      -------------------------------------------------------------
         1        2.0000           -0.6191584             -16.8482
       ...           ...                  ...                  ...
         9        2.0000           -0.4761178             -12.9558
        10        2.0000           -0.4661261             -12.6839
        11        2.0000           -0.4565897             -12.4244
        12        2.0000           -0.4378075             -11.9133
        13        2.0000           -0.4274599             -11.6318
        14        2.0000           -0.4215868             -11.4720
        15        2.0000           -0.3824412             -10.4068 (HOMO)
        16                         -0.1889147              -5.1406 (LUMO)
        17                          0.0959356               2.6105
        18                          0.1199875               3.2650
        19                          0.1426119               3.8807
        20                          0.1661814               4.5220
       ...                                ...                  ...
        30                          0.6525738              17.7574
      -------------------------------------------------------------
                  HL-Gap            0.1935265 Eh            5.2661 eV
             Fermi-level           -0.2856779 Eh           -7.7737 eV

 SCC (total)                   0 d,  0 h,  0 min,  0.012 sec
 SCC setup                      ...        0 min,  0.001 sec (  4.570%)
 Dispersion                     ...        0 min,  0.000 sec (  2.024%)
 classical contributions        ...        0 min,  0.000 sec (  1.145%)
 integral evaluation            ...        0 min,  0.000 sec (  4.006%)
 iterations                     ...        0 min,  0.008 sec ( 72.390%)
 molecular gradient             ...        0 min,  0.002 sec ( 13.945%)
 printout                       ...        0 min,  0.000 sec (  1.754%)

         :::::::::::::::::::::::::::::::::::::::::::::::::::::
         ::                     SUMMARY                     ::
         :::::::::::::::::::::::::::::::::::::::::::::::::::::
         :: total energy             -15.776203791294 Eh    ::
         :: gradient norm              0.004601960253 Eh/a0 ::
         :: HOMO-LUMO gap              5.266123567658 eV    ::
         ::.................................................::
         :: SCC energy               -16.046199789617 Eh    ::
         :: -> isotropic ES            0.003087569495 Eh    ::
         :: -> anisotropic ES          0.004942934080 Eh    ::
         :: -> anisotropic XC          0.011450421065 Eh    ::
         :: -> dispersion             -0.007246504013 Eh    ::
         :: repulsion energy           0.269995998323 Eh    ::
         :: add. restraining           0.000000000000 Eh    ::
         :: total charge              -0.000000000000 e     ::
         :::::::::::::::::::::::::::::::::::::::::::::::::::::


Property printout bound to 'properties.out'

           -------------------------------------------------
          | TOTAL ENERGY              -15.776203791294 Eh   |
          | GRADIENT NORM               0.004601960253 Eh/α |
          | HOMO-LUMO GAP               5.266123567658 eV   |
           -------------------------------------------------

------------------------------------------------------------------------
 * finished run on 2026/09/19 at 20:17:01.248     
------------------------------------------------------------------------
 total:
 * wall-time:     0 d,  0 h,  0 min,  0.030 sec
 *  cpu-time:     0 d,  0 h,  0 min,  0.161 sec
 * ratio c/w:     5.412 speedup
 SCF:
 * wall-time:     0 d,  0 h,  0 min,  0.012 sec
 *  cpu-time:     0 d,  0 h,  0 min,  0.069 sec
 * ratio c/w:     5.965 speedup


-------------------------   --------------------
FINAL SINGLE POINT ENERGY       -15.776203791290
-------------------------   --------------------


-------------
DIPOLE MOMENT
-------------
                                X             Y             Z
Total Dipole Moment    :     -0.02400       0.00200       0.01000
                        -----------------------------------------
Magnitude (a.u.)       :      0.02608
Magnitude (Debye)      :      0.06628


------------------
CARTESIAN GRADIENT
------------------

   1   C   :    0.001642479    0.000506678    0.000061887
   2   C   :   -0.000030056   -0.000177719    0.001012151
   3   C   :   -0.001103229   -0.000030846   -0.000403610
   4   C   :    0.001083434    0.000685941    0.001061280
   5   C   :   -0.002420924   -0.000241343   -0.001632009
   6   H   :    0.000377206   -0.000413579    0.000259177
   7   H   :   -0.000559253   -0.000421962   -0.000475054
   8   H   :   -0.000541341    0.000463184   -0.000629991
   9   H   :   -0.000191787    0.000517641   -0.000319153
  10   H   :    0.000726972   -0.000321336    0.000222647
  11   H   :   -0.000027200    0.000034156    0.000028148
  12   H   :    0.000082253   -0.000289110    0.000143647
  13   H   :    0.000471915    0.000001640   -0.000137449
  14   H   :    0.000119745    0.000258027    0.000166338
  15   H   :    0.000369786   -0.000571371    0.000641991

Difference to translation invariance:
           :    0.0000000000    0.0000000000    0.0000000000

Difference to rotation invariance:
           :   -0.0000000127   -0.0000000141    0.0000000061

Norm of the Cartesian gradient     ...    0.0046019603
RMS gradient                       ...    0.0006860197
MAX gradient                       ...    0.0024209239
------------------------------------------------------------------------------
                         ORCA GEOMETRY RELAXATION STEP
------------------------------------------------------------------------------

Reading the OPT-File                    .... done
Getting information on internals        .... done
Copying old internal coords+grads       .... done
Making the new internal coordinates     .... (2022 redundants) done
Validating the new internal coordinates .... (2022 redundants) done
Calculating the B-matrix                .... done
Calculating the G,G- and P matrices     .... done
Transforming gradient to internals      .... done
Projecting the internal gradient        .... done
Number of atoms                         ....  15
Number of internal coordinates          ....  58
Current Energy                          ....   -15.776203791 Eh
Current gradient norm                   ....     0.004601960 Eh/bohr
Maximum allowed component of the step   ....  0.300
Current trust radius                    ....  0.700
Updating the Hessian (BFGS)             .... done
Forming the augmented Hessian           .... done
Diagonalizing the augmented Hessian     .... done
Last element of RFO vector              ....  0.995663521
Lowest eigenvalues of augmented Hessian:
 -0.000100266  0.002788729  0.012049734  0.015507182  0.028033522
Length of the computed step             ....  0.093432871
The final length of the internal step   ....  0.093432871
Converting the step to Cartesian space:
 Initial RMS(Int)=    0.0122683370
Transforming coordinates:
 Iter   0:  RMS(Cart)=    0.0190304982 RMS(Int)=    0.8247767183
done
Storing new coordinates                 .... done
The predicted energy change is          ....    -0.000050571
Previously predicted energy change      ....    -0.000172814
Actually observed energy change         ....    -0.000217892
Ratio of predicted to observed change   ....     1.260848699
New trust radius                        ....     0.700000000

                                .--------------------.
          ----------------------|Geometry convergence|-------------------------
          Item                value                   Tolerance       Converged
          ---------------------------------------------------------------------
          Energy change      -0.0002178922            0.0000050000      NO
          RMS gradient        0.0004447674            0.0001000000      NO
          MAX gradient        0.0018228633            0.0003000000      NO
          RMS step            0.0122683370            0.0020000000      NO
          MAX step            0.0488151811            0.0040000000      NO
          -------------------------------------------------------------------------
          ........................................................
          Max(Bonds)      0.0031      Max(Angles)    0.44
          Max(Dihed)        2.80      Max(Improp)    0.00
          ---------------------------------------------------------------------

    ---------------------------------------------------------------------------
                         Redundant Internal Coordinates
                            (Angstroem and degrees)

        Definition                    Value    dE/dq     Step     New-Value
    ----------------------------------------------------------------------------
     1. B(C   1,C   0)                1.4913 -0.001157  0.0009    1.4923   
     2. B(C   2,C   1)                1.3215 -0.000237  0.0005    1.3220   
     3. B(C   3,C   2)                1.4962 -0.000398 -0.0002    1.4960   
     4. B(C   4,C   3)                1.5249 -0.001823  0.0031    1.5280   
     5. B(H   5,C   0)                1.0879  0.000414 -0.0003    1.0876   
     6. B(H   6,C   0)                1.0924  0.000845 -0.0014    1.0909   
     7. B(H   7,C   0)                1.0900  0.000533 -0.0003    1.0897   
     8. B(H   8,C   1)                1.0841  0.000517 -0.0008    1.0833   
     9. B(H   9,C   2)                1.0835  0.000287 -0.0004    1.0831   
    10. B(H  10,C   3)                1.0919 -0.000006  0.0001    1.0920   
    11. B(H  11,C   3)                1.0948  0.000260 -0.0004    1.0944   
    12. B(H  12,C   4)                1.0888  0.000481 -0.0012    1.0876   
    13. B(H  13,C   4)                1.0883  0.000269 -0.0003    1.0880   
    14. B(H  14,C   4)                1.0895  0.000863 -0.0011    1.0885   
    15. A(H   6,C   0,H   7)          107.32 -0.000396    0.42    107.74   
    16. A(C   1,C   0,H   5)          110.89 -0.000467    0.23    111.12   
    17. A(C   1,C   0,H   6)          110.04 -0.000184    0.02    110.06   
    18. A(C   1,C   0,H   7)          110.62  0.000262   -0.25    110.37   
    19. A(H   5,C   0,H   6)          108.55  0.000161    0.02    108.56   
    20. A(H   5,C   0,H   7)          109.34  0.000632   -0.44    108.90   
    21. A(C   2,C   1,H   8)          119.88  0.000272   -0.04    119.84   
    22. A(C   0,C   1,H   8)          115.25 -0.000389    0.17    115.41   
    23. A(C   0,C   1,C   2)          124.86  0.000117   -0.12    124.74   
    24. A(C   3,C   2,H   9)          114.91 -0.000601    0.20    115.11   
    25. A(C   1,C   2,H   9)          120.32  0.000970   -0.23    120.09   
    26. A(C   1,C   2,C   3)          124.76 -0.000370    0.03    124.79   
    27. A(C   4,C   3,H  10)          109.75  0.000073   -0.16    109.59   
    28. A(C   2,C   3,H  10)          109.77 -0.000056    0.11    109.88   
    29. A(C   2,C   3,C   4)          111.15 -0.000125    0.02    111.17   
    30. A(H  10,C   3,H  11)          108.06  0.000086   -0.01    108.05   
    31. A(C   4,C   3,H  11)          108.88 -0.000084    0.12    109.00   
    32. A(C   2,C   3,H  11)          109.16  0.000113   -0.07    109.09   
    33. A(H  13,C   4,H  14)          108.34  0.000219   -0.07    108.28   
    34. A(H  12,C   4,H  14)          108.23 -0.000544    0.42    108.65   
    35. A(C   3,C   4,H  14)          110.66  0.000185   -0.28    110.38   
    36. A(H  12,C   4,H  13)          108.45 -0.000148    0.08    108.54   
    37. A(C   3,C   4,H  13)          110.47  0.000428   -0.17    110.30   
    38. A(C   3,C   4,H  12)          110.61 -0.000157    0.03    110.63   
    39. D(C   2,C   1,C   0,H   5)      9.18  0.000031   -2.23      6.95   
    40. D(C   2,C   1,C   0,H   6)   -110.93  0.000251   -2.41   -113.34   
    41. D(H   8,C   1,C   0,H   6)     67.72  0.000271   -2.09     65.63   
    42. D(C   2,C   1,C   0,H   7)    130.67  0.000694   -2.80    127.87   
    43. D(H   8,C   1,C   0,H   5)   -172.17  0.000051   -1.90   -174.07   
    44. D(C   3,C   2,C   1,C   0)    179.90  0.000041    0.15    180.05   
    45. D(C   3,C   2,C   1,H   8)      1.31  0.000029   -0.19      1.12   
    46. D(H   9,C   2,C   1,H   8)    179.78 -0.000047    0.03    179.81   
    47. D(H   9,C   2,C   1,C   0)     -1.63 -0.000034    0.37     -1.26   
    48. D(H  11,C   3,C   2,C   1)   -120.85 -0.000121    0.12   -120.73   
    49. D(H  10,C   3,C   2,H   9)    178.88  0.000067   -0.08    178.80   
    50. D(H  10,C   3,C   2,C   1)     -2.57  0.000017    0.13     -2.44   
    51. D(C   4,C   3,C   2,H   9)    -59.51  0.000038   -0.20    -59.71   
    52. D(C   4,C   3,C   2,C   1)    119.04 -0.000012    0.01    119.05   
    53. D(H  12,C   4,C   3,C   2)   -178.91  0.000140    0.31   -178.61   
    54. D(H  13,C   4,C   3,H  11)   -179.11  0.000124    0.32   -178.79   
    55. D(H  13,C   4,C   3,H  10)     62.79  0.000027    0.36     63.14   
    56. D(H  13,C   4,C   3,C   2)    -58.83  0.000131    0.32    -58.51   
    57. D(H  12,C   4,C   3,H  11)     60.80  0.000132    0.31     61.11   
    58. D(H  12,C   4,C   3,H  10)    -57.30  0.000035    0.35    -56.95   
    ----------------------------------------------------------------------------

Geometry step timings:
Preparation and reading OPT file:      0.000 s ( 1.119 %)
Internal coordinates            :      0.000 s ( 1.259 %)
B/P matrices and projection     :      0.000 s (33.636 %)
Hessian update/contruction      :      0.000 s (13.147 %)
Making the step                 :      0.000 s (24.056 %)
Converting the step to Cartesian:      0.000 s ( 3.147 %)
Storing new data                :      0.000 s ( 1.399 %)
Checking convergence            :      0.000 s ( 2.028 %)
Final printing                  :      0.000 s (20.070 %)
Total time                      :      0.001 s

Time for energy+gradient        :      0.037 s
Time for complete geometry iter :      0.039 s

         *************************************************************
         *                GEOMETRY OPTIMIZATION CYCLE   8            *
         *************************************************************
---------------------------------
CARTESIAN COORDINATES (ANGSTROEM)
---------------------------------
  C    -2.501421    0.439973    0.390396
  C    -1.168546    0.321616   -0.270111
  C    -0.162096   -0.402522    0.188608
  C     1.174898   -0.521178   -0.472061
  C     2.288413   -0.007932    0.439795
  H    -2.501884   -0.048167    1.362284
  H    -3.269453   -0.022723   -0.231017
  H    -2.767814    1.488396    0.521897
  H    -1.059423    0.869216   -1.198378
  H    -0.265715   -0.949271    1.117838
  H     1.178339    0.042764   -1.407120
  H     1.364914   -1.572519   -0.709320
  H     3.253037   -0.075399   -0.058012
  H     2.108794    1.031439    0.706575
  H     2.327956   -0.593692    1.356350

----------------------------
CARTESIAN COORDINATES (A.U.)
----------------------------
  NO LB    ZA    FRAG    MASS        X           Y           Z
   0 C   6.0000    1    12.011   -4.727001    0.831428    0.737742
   1 C   6.0000    1    12.011   -2.208231    0.607767   -0.510435
   2 C   6.0000    1    12.011   -0.306317   -0.760656    0.356417
   3 C   6.0000    1    12.011    2.220235   -0.984883   -0.892067
   4 C   6.0000    1    12.011    4.324474   -0.014989    0.831093
   5 H   1.0000    1     1.008   -4.727875   -0.091023    2.574344
   6 H   1.0000    1     1.008   -6.178370   -0.042941   -0.436559
   7 H   1.0000    1     1.008   -5.230410    2.812660    0.986243
   8 H   1.0000    1     1.008   -2.002019    1.642581   -2.264606
   9 H   1.0000    1     1.008   -0.502129   -1.793862    2.112407
  10 H   1.0000    1     1.008    2.226738    0.080812   -2.659072
  11 H   1.0000    1     1.008    2.579313   -2.971630   -1.340421
  12 H   1.0000    1     1.008    6.147348   -0.142484   -0.109626
  13 H   1.0000    1     1.008    3.985043    1.949137    1.335233
  14 H   1.0000    1     1.008    4.399199   -1.121916    2.563129

      -----------------------------------------------------------      
     |                   =====================                   |     
     |                           x T B                           |     
     |                   =====================                   |     
     |                         S. Grimme                         |     
     |          Mulliken Center for Theoretical Chemistry        |     
     |                    University of Bonn                     |     
      -----------------------------------------------------------      

   * xtb version 6.7.1 (edcfbbe) compiled by 'albert@albert-system' on 2024-07-22

   xtb is free software: you can redistribute it and/or modify it under
   the terms of the GNU Lesser General Public License as published by
   the Free Software Foundation, either version 3 of the License, or
   (at your option) any later version.
   
   xtb is distributed in the hope that it will be useful,
   but WITHOUT ANY WARRANTY; without even the implied warranty of
   MERCHANTABILITY or FITNESS FOR A PARTICULAR PURPOSE.  See the
   GNU Lesser General Public License for more details.
   
   Cite this work as:
   * C. Bannwarth, E. Caldeweyher, S. Ehlert, A. Hansen, P. Pracht,
     J. Seibert, S. Spicher, S. Grimme, WIREs Comput. Mol. Sci., 2020, 11,
     e01493. DOI: 10.1002/wcms.1493
   
   for GFN2-xTB:
   * C. Bannwarth, S. Ehlert and S. Grimme., J. Chem. Theory Comput., 2019,
     15, 1652-1671. DOI: 10.1021/acs.jctc.8b01176
   for GFN1-xTB:
   * S. Grimme, C. Bannwarth, P. Shushkov, J. Chem. Theory Comput., 2017,
     13, 1989-2009. DOI: 10.1021/acs.jctc.7b00118
   for GFN0-xTB:
   * P. Pracht, E. Caldeweyher, S. Ehlert, S. Grimme, ChemRxiv, 2019, preprint.
     DOI: 10.26434/chemrxiv.8326202.v1
   for GFN-FF:
   * S. Spicher and S. Grimme, Angew. Chem. Int. Ed., 2020, 59, 15665-15673.
     DOI: 10.1002/anie.202004239
   
   for ALPB and GBSA implicit solvation:
   * S. Ehlert, M. Stahn, S. Spicher, S. Grimme, J. Chem. Theory Comput.,
     2021, 17, 4250-4261. DOI: 10.1021/acs.jctc.1c00471
   
   for ddCOSMO and CPCM-X implicit solvation:
   * M. Stahn, S. Ehlert, S. Grimme, J. Phys. Chem. A,
     2023, XX, XXXX-XXXX. DOI: 10.1021/acs.jpca.3c04382
   
   for DFT-D4:
   * E. Caldeweyher, C. Bannwarth and S. Grimme, J. Chem. Phys., 2017,
     147, 034112. DOI: 10.1063/1.4993215
   * E. Caldeweyher, S. Ehlert, A. Hansen, H. Neugebauer, S. Spicher,
     C. Bannwarth and S. Grimme, J. Chem. Phys., 2019, 150, 154122.
     DOI: 10.1063/1.5090222
   * E. Caldeweyher, J.-M. Mewes, S. Ehlert and S. Grimme, Phys. Chem. Chem. Phys.
     2020, 22, 8499-8512. DOI: 10.1039/D0CP00502A
   
   for sTDA-xTB:
   * S. Grimme and C. Bannwarth, J. Chem. Phys., 2016, 145, 054103.
     DOI: 10.1063/1.4959605
   
   in the mass-spec context:
   * V. Asgeirsson, C. Bauer and S. Grimme, Chem. Sci., 2017, 8, 4879.
     DOI: 10.1039/c7sc00601b
   * J. Koopman and S. Grimme, ACS Omega 2019, 4, 12, 15120-15133.
     DOI: 10.1021/acsomega.9b02011
   
   for metadynamics refer to:
   * S. Grimme, J. Chem. Theory Comput., 2019, 155, 2847-2862
     DOI: 10.1021/acs.jctc.9b00143
   
   for SPH calculations refer to:
   * S. Spicher and S. Grimme, J. Chem. Theory Comput., 2021, 17, 1701-1714
     DOI: 10.1021/acs.jctc.0c01306
   
   for ONIOM refer to:
   * C. Plett, A. Katbashev, S. Ehlert, S. Grimme, M. Bursch,
     Phys. Chem. Chem. Phys., 2023, 25, 17860-17868. DOI: 10.1039/D3CP02178E
   
   for DIPRO refer to:
   * J. Kohn, N. Gildemeister, S. Grimme, D. Fazzi, A. Hansen,
     J. Chem. Phys., 2023, just accepted.
   
   for PTB refer to:
   * S. Grimme, M. Mueller, A. Hansen, J. Chem. Phys., 2023, 158, 124111.
     DOI: 10.1063/5.0137838
   
   with help from (in alphabetical order)
   P. Atkinson, C. Bannwarth, F. Bohle, G. Brandenburg, E. Caldeweyher
   M. Checinski, S. Dohm, S. Ehlert, S. Ehrlich, I. Gerasimov, C. Hölzer
   A. Katbashev, J. Kohn, J. Koopman, C. Lavigne, S. Lehtola, F. März, M. Müller,
   F. Musil, H. Neugebauer, J. Pisarek, C. Plett, P. Pracht, F. Pultar,
   J. Seibert, P. Shushkov, S. Spicher, M. Stahn, M. Steiner, T. Strunk,
   J. Stückrath, T. Rose, and J. Unsleber
   
 * started run on 2026/09/19 at 20:17:01.257     
   ID    Z sym.   atoms
    1    6 C      1-5
    2    1 H      6-15

           -------------------------------------------------
          |                Calculation Setup                |
           -------------------------------------------------

          program call               : /apps/eb/ORCA/6.1.1-gompi-2023b-avx2/bin/otool_xtb goat_XTB.xyz --grad -c 0 -u 0 -P 8 --namespace goat --input goat_XTB.input.tmp --acc 0.200000
          hostname                   : b3-21
          calculation namespace      : goat
          coordinate file            : goat_XTB.xyz
          omp threads                :                     8


           -------------------------------------------------
          |                 G F N 2 - x T B                 |
           -------------------------------------------------

        Reference                      10.1021/acs.jctc.8b01176
      * Hamiltonian:
        H0-scaling (s, p, d)           1.850000    2.230000    2.230000
        zeta-weighting                 0.500000
      * Dispersion:
        s8                             2.700000
        a1                             0.520000
        a2                             5.000000
        s9                             5.000000
      * Repulsion:
        kExp                           1.500000    1.000000
        rExp                           1.000000
      * Coulomb:
        alpha                          2.000000
        third order                    shell-resolved
        anisotropic                    true
        a3                             3.000000
        a5                             4.000000
        cn-shift                       1.200000
        cn-exp                         4.000000
        max-rad                        5.000000

q/qsh data taken from xtbrestart
CAMM data taken from xtbrestart

          ...................................................
          :                      SETUP                      :
          :.................................................:
          :  # basis functions                  30          :
          :  # atomic orbitals                  30          :
          :  # shells                           20          :
          :  # electrons                        30          :
          :  max. iterations                   250          :
          :  Hamiltonian                  GFN2-xTB          :
          :  restarted?                       true          :
          :  GBSA solvation                  false          :
          :  PC potential                    false          :
          :  electronic temp.          300.0000000     K    :
          :  accuracy                    0.2000000          :
          :  -> integral cutoff          0.3198970E+02      :
          :  -> integral neglect         0.2000000E-08      :
          :  -> SCF convergence          0.2000000E-06 Eh   :
          :  -> wf. convergence          0.2000000E-04 e    :
          :  Broyden damping             0.4000000          :
          :  net charge                          0          :
          :  unpaired electrons                  0          :
          ...................................................

 iter      E             dE          RMSdq      gap      omega  full diag
   1    -16.0465080 -0.160465E+02  0.520E-02    5.26       0.0  T
   2    -16.0465082 -0.158075E-06  0.308E-02    5.26       1.0  T
   3    -16.0465080  0.154039E-06  0.402E-03    5.26       6.4  T
   4    -16.0465082 -0.185274E-06  0.127E-03    5.26      20.4  T
   5    -16.0465082 -0.136377E-07  0.428E-04    5.26      60.3  T
   6    -16.0465082 -0.140940E-09  0.962E-05    5.26     268.5  T
   7    -16.0465082 -0.692069E-11  0.292E-05    5.26     884.1  T

   *** convergence criteria satisfied after 7 iterations ***

         #    Occupation            Energy/Eh            Energy/eV
      -------------------------------------------------------------
         1        2.0000           -0.6190415             -16.8450
       ...           ...                  ...                  ...
         9        2.0000           -0.4762267             -12.9588
        10        2.0000           -0.4660594             -12.6821
        11        2.0000           -0.4564685             -12.4211
        12        2.0000           -0.4379153             -11.9163
        13        2.0000           -0.4272955             -11.6273
        14        2.0000           -0.4218424             -11.4789
        15        2.0000           -0.3824543             -10.4071 (HOMO)
        16                         -0.1890035              -5.1430 (LUMO)
        17                          0.0957652               2.6059
        18                          0.1204188               3.2768
        19                          0.1406327               3.8268
        20                          0.1667231               4.5368
       ...                                ...                  ...
        30                          0.6504457              17.6995
      -------------------------------------------------------------
                  HL-Gap            0.1934508 Eh            5.2641 eV
             Fermi-level           -0.2857289 Eh           -7.7751 eV

 SCC (total)                   0 d,  0 h,  0 min,  0.009 sec
 SCC setup                      ...        0 min,  0.000 sec (  1.656%)
 Dispersion                     ...        0 min,  0.000 sec (  1.740%)
 classical contributions        ...        0 min,  0.000 sec (  1.012%)
 integral evaluation            ...        0 min,  0.000 sec (  4.386%)
 iterations                     ...        0 min,  0.006 sec ( 75.079%)
 molecular gradient             ...        0 min,  0.001 sec ( 14.293%)
 printout                       ...        0 min,  0.000 sec (  1.597%)

         :::::::::::::::::::::::::::::::::::::::::::::::::::::
         ::                     SUMMARY                     ::
         :::::::::::::::::::::::::::::::::::::::::::::::::::::
         :: total energy             -15.776270424486 Eh    ::
         :: gradient norm              0.001754508899 Eh/a0 ::
         :: HOMO-LUMO gap              5.264062907323 eV    ::
         ::.................................................::
         :: SCC energy               -16.046503962299 Eh    ::
         :: -> isotropic ES            0.003105430097 Eh    ::
         :: -> anisotropic ES          0.004937821476 Eh    ::
         :: -> anisotropic XC          0.011438856720 Eh    ::
         :: -> dispersion             -0.007245007226 Eh    ::
         :: repulsion energy           0.270233537813 Eh    ::
         :: add. restraining           0.000000000000 Eh    ::
         :: total charge               0.000000000000 e     ::
         :::::::::::::::::::::::::::::::::::::::::::::::::::::


Property printout bound to 'properties.out'

           -------------------------------------------------
          | TOTAL ENERGY              -15.776270424486 Eh   |
          | GRADIENT NORM               0.001754508899 Eh/α |
          | HOMO-LUMO GAP               5.264062907323 eV   |
           -------------------------------------------------

------------------------------------------------------------------------
 * finished run on 2026/09/19 at 20:17:01.290     
------------------------------------------------------------------------
 total:
 * wall-time:     0 d,  0 h,  0 min,  0.033 sec
 *  cpu-time:     0 d,  0 h,  0 min,  0.169 sec
 * ratio c/w:     5.164 speedup
 SCF:
 * wall-time:     0 d,  0 h,  0 min,  0.009 sec
 *  cpu-time:     0 d,  0 h,  0 min,  0.051 sec
 * ratio c/w:     5.941 speedup


-------------------------   --------------------
FINAL SINGLE POINT ENERGY       -15.776270424490
-------------------------   --------------------


-------------
DIPOLE MOMENT
-------------
                                X             Y             Z
Total Dipole Moment    :     -0.02400       0.00500       0.01100
                        -----------------------------------------
Magnitude (a.u.)       :      0.02687
Magnitude (Debye)      :      0.06830


------------------
CARTESIAN GRADIENT
------------------

   1   C   :    0.000554035    0.000028162   -0.000161146
   2   C   :   -0.000358002    0.000560421   -0.000130466
   3   C   :   -0.000408483   -0.000457603    0.000055815
   4   C   :    0.000051141   -0.000059367    0.000500050
   5   C   :    0.000046008    0.000099504   -0.000766805
   6   H   :   -0.000128264    0.000083641    0.000209191
   7   H   :    0.000027207   -0.000537115   -0.000102653
   8   H   :    0.000101325    0.000193275    0.000004986
   9   H   :    0.000062168    0.000175970   -0.000023911
  10   H   :    0.000326799   -0.000106016    0.000039854
  11   H   :    0.000239414    0.000085134   -0.000015285
  12   H   :   -0.000228314   -0.000149430    0.000076883
  13   H   :   -0.000006729    0.000289930   -0.000133807
  14   H   :    0.000008719    0.000017348    0.000220558
  15   H   :   -0.000287024   -0.000223854    0.000226737

Difference to translation invariance:
           :    0.0000000000   -0.0000000000   -0.0000000000

Difference to rotation invariance:
           :   -0.0000000027   -0.0000000083   -0.0000000054

Norm of the Cartesian gradient     ...    0.0017545089
RMS gradient                       ...    0.0002615467
MAX gradient                       ...    0.0007668051
------------------------------------------------------------------------------
                         ORCA GEOMETRY RELAXATION STEP
------------------------------------------------------------------------------

Reading the OPT-File                    .... done
Getting information on internals        .... done
Copying old internal coords+grads       .... done
Making the new internal coordinates     .... (2022 redundants) done
Validating the new internal coordinates .... (2022 redundants) done
Calculating the B-matrix                .... done
Calculating the G,G- and P matrices     .... done
Transforming gradient to internals      .... done
Projecting the internal gradient        .... done
Number of atoms                         ....  15
Number of internal coordinates          ....  58
Current Energy                          ....   -15.776270424 Eh
Current gradient norm                   ....     0.001754509 Eh/bohr
Maximum allowed component of the step   ....  0.300
Current trust radius                    ....  0.700
Updating the Hessian (BFGS)             .... done
Forming the augmented Hessian           .... done
Diagonalizing the augmented Hessian     .... done
Last element of RFO vector              ....  0.996596310
Lowest eigenvalues of augmented Hessian:
 -0.000044435  0.002622248  0.007251303  0.015508258  0.028052955
Length of the computed step             ....  0.082718159
The final length of the internal step   ....  0.082718159
Converting the step to Cartesian space:
 Initial RMS(Int)=    0.0108614264
Transforming coordinates:
 Iter   0:  RMS(Cart)=    0.0173149211 RMS(Int)=    0.0108612792
done
Storing new coordinates                 .... done
The predicted energy change is          ....    -0.000022370
Previously predicted energy change      ....    -0.000050571
Actually observed energy change         ....    -0.000066633
Ratio of predicted to observed change   ....     1.317628398
New trust radius                        ....     0.700000000

                                .--------------------.
          ----------------------|Geometry convergence|-------------------------
          Item                value                   Tolerance       Converged
          ---------------------------------------------------------------------
          Energy change      -0.0000666332            0.0000050000      NO
          RMS gradient        0.0001991751            0.0001000000      NO
          MAX gradient        0.0005354667            0.0003000000      NO
          RMS step            0.0108614264            0.0020000000      NO
          MAX step            0.0405080279            0.0040000000      NO
          -------------------------------------------------------------------------
          ........................................................
          Max(Bonds)      0.0016      Max(Angles)    0.18
          Max(Dihed)        2.32      Max(Improp)    0.00
          ---------------------------------------------------------------------

    ---------------------------------------------------------------------------
                         Redundant Internal Coordinates
                            (Angstroem and degrees)

        Definition                    Value    dE/dq     Step     New-Value
    ----------------------------------------------------------------------------
     1. B(C   1,C   0)                1.4923 -0.000535  0.0009    1.4932   
     2. B(C   2,C   1)                1.3220  0.000150  0.0001    1.3221   
     3. B(C   3,C   2)                1.4960 -0.000211  0.0001    1.4961   
     4. B(C   4,C   3)                1.5280 -0.000383  0.0016    1.5297   
     5. B(H   5,C   0)                1.0876  0.000149 -0.0003    1.0873   
     6. B(H   6,C   0)                1.0909  0.000267 -0.0010    1.0900   
     7. B(H   7,C   0)                1.0897  0.000162 -0.0003    1.0894   
     8. B(H   8,C   1)                1.0833  0.000116 -0.0004    1.0828   
     9. B(H   9,C   2)                1.0831  0.000056 -0.0002    1.0829   
    10. B(H  10,C   3)                1.0920  0.000058 -0.0001    1.0919   
    11. B(H  11,C   3)                1.0944  0.000087 -0.0003    1.0941   
    12. B(H  12,C   4)                1.0876  0.000037 -0.0005    1.0871   
    13. B(H  13,C   4)                1.0880  0.000069 -0.0002    1.0878   
    14. B(H  14,C   4)                1.0885  0.000301 -0.0008    1.0876   
    15. A(H   6,C   0,H   7)          107.74  0.000312    0.10    107.84   
    16. A(C   1,C   0,H   5)          111.12  0.000290    0.04    111.16   
    17. A(C   1,C   0,H   6)          110.06 -0.000329    0.08    110.14   
    18. A(C   1,C   0,H   7)          110.37 -0.000150   -0.09    110.28   
    19. A(H   5,C   0,H   6)          108.56 -0.000075    0.06    108.62   
    20. A(H   5,C   0,H   7)          108.90 -0.000044   -0.18    108.71   
    21. A(C   2,C   1,H   8)          119.84  0.000119   -0.03    119.81   
    22. A(C   0,C   1,H   8)          115.42  0.000126    0.04    115.46   
    23. A(C   0,C   1,C   2)          124.74 -0.000247   -0.01    124.73   
    24. A(C   3,C   2,H   9)          115.11 -0.000213    0.13    115.24   
    25. A(C   1,C   2,H   9)          120.09  0.000480   -0.18    119.91   
    26. A(C   1,C   2,C   3)          124.79 -0.000268    0.05    124.84   
    27. A(C   4,C   3,H  10)          109.59 -0.000229   -0.01    109.58   
    28. A(C   2,C   3,H  10)          109.88  0.000132    0.03    109.91   
    29. A(C   2,C   3,C   4)          111.17  0.000022    0.00    111.17   
    30. A(H  10,C   3,H  11)          108.06  0.000039   -0.02    108.04   
    31. A(C   4,C   3,H  11)          109.00  0.000209   -0.01    108.98   
    32. A(C   2,C   3,H  11)          109.09 -0.000171    0.00    109.10   
    33. A(H  13,C   4,H  14)          108.28 -0.000039   -0.01    108.27   
    34. A(H  12,C   4,H  14)          108.65  0.000301    0.12    108.77   
    35. A(C   3,C   4,H  14)          110.38 -0.000420   -0.03    110.35   
    36. A(H  12,C   4,H  13)          108.54 -0.000116    0.06    108.60   
    37. A(C   3,C   4,H  13)          110.30  0.000182   -0.12    110.18   
    38. A(C   3,C   4,H  12)          110.63  0.000096   -0.02    110.61   
    39. D(C   2,C   1,C   0,H   5)      6.95  0.000155   -2.06      4.90   
    40. D(C   2,C   1,C   0,H   6)   -113.34  0.000279   -2.21   -115.55   
    41. D(H   8,C   1,C   0,H   6)     65.63  0.000232   -1.94     63.69   
    42. D(C   2,C   1,C   0,H   7)    127.87  0.000192   -2.32    125.55   
    43. D(H   8,C   1,C   0,H   5)   -174.07  0.000109   -1.79   -175.86   
    44. D(C   3,C   2,C   1,C   0)   -179.95  0.000016    0.08   -179.87   
    45. D(C   3,C   2,C   1,H   8)      1.12  0.000065   -0.20      0.92   
    46. D(H   9,C   2,C   1,H   8)    179.81  0.000001    0.00    179.82   
    47. D(H   9,C   2,C   1,C   0)     -1.25 -0.000048    0.28     -0.97   
    48. D(H  11,C   3,C   2,C   1)   -120.73  0.000034    0.07   -120.66   
    49. D(H  10,C   3,C   2,H   9)    178.81  0.000110   -0.12    178.69   
    50. D(H  10,C   3,C   2,C   1)     -2.44  0.000057    0.07     -2.37   
    51. D(C   4,C   3,C   2,H   9)    -59.71 -0.000075   -0.11    -59.81   
    52. D(C   4,C   3,C   2,C   1)    119.05 -0.000128    0.08    119.13   
    53. D(H  12,C   4,C   3,C   2)   -178.61  0.000063   -0.33   -178.93   
    54. D(H  13,C   4,C   3,H  11)   -178.79  0.000161   -0.34   -179.13   
    55. D(H  13,C   4,C   3,H  10)     63.14  0.000124   -0.31     62.84   
    56. D(H  13,C   4,C   3,C   2)    -58.51  0.000098   -0.34    -58.85   
    57. D(H  12,C   4,C   3,H  11)     61.11  0.000125   -0.32     60.79   
    58. D(H  12,C   4,C   3,H  10)    -56.95  0.000089   -0.29    -57.24   
    ----------------------------------------------------------------------------

Geometry step timings:
Preparation and reading OPT file:      0.000 s ( 1.029 %)
Internal coordinates            :      0.000 s ( 1.166 %)
B/P matrices and projection     :      0.000 s (32.510 %)
Hessian update/contruction      :      0.000 s (12.963 %)
Making the step                 :      0.000 s (23.800 %)
Converting the step to Cartesian:      0.000 s ( 2.812 %)
Storing new data                :      0.000 s ( 1.440 %)
Checking convergence            :      0.000 s ( 5.281 %)
Final printing                  :      0.000 s (18.930 %)
Total time                      :      0.001 s

Time for energy+gradient        :      0.040 s
Time for complete geometry iter :      0.042 s

         *************************************************************
         *                GEOMETRY OPTIMIZATION CYCLE   9            *
         *************************************************************
---------------------------------
CARTESIAN COORDINATES (ANGSTROEM)
---------------------------------
  C    -2.502509    0.438008    0.390091
  C    -1.169910    0.317037   -0.272631
  C    -0.161455   -0.402398    0.189394
  C     1.175623   -0.523229   -0.470972
  C     2.290099   -0.003878    0.439016
  H    -2.511710   -0.073871    1.349324
  H    -3.277165    0.005200   -0.242837
  H    -2.750328    1.486609    0.551045
  H    -1.061283    0.861444   -1.202317
  H    -0.267334   -0.945084    1.120520
  H     1.178851    0.035596   -1.409021
  H     1.366611   -1.575340   -0.702745
  H     3.254776   -0.078487   -0.056559
  H     2.110995    1.038245    0.694438
  H     2.324740   -0.579852    1.360977

----------------------------
CARTESIAN COORDINATES (A.U.)
----------------------------
  NO LB    ZA    FRAG    MASS        X           Y           Z
   0 C   6.0000    1    12.011   -4.729056    0.827715    0.737165
   1 C   6.0000    1    12.011   -2.210810    0.599112   -0.515198
   2 C   6.0000    1    12.011   -0.305105   -0.760422    0.357902
   3 C   6.0000    1    12.011    2.221605   -0.988760   -0.890009
   4 C   6.0000    1    12.011    4.327661   -0.007328    0.829620
   5 H   1.0000    1     1.008   -4.746445   -0.139596    2.549853
   6 H   1.0000    1     1.008   -6.192945    0.009826   -0.458896
   7 H   1.0000    1     1.008   -5.197367    2.809283    1.041325
   8 H   1.0000    1     1.008   -2.005534    1.627894   -2.272050
   9 H   1.0000    1     1.008   -0.505189   -1.785950    2.117476
  10 H   1.0000    1     1.008    2.227706    0.067267   -2.662663
  11 H   1.0000    1     1.008    2.582521   -2.976962   -1.327995
  12 H   1.0000    1     1.008    6.150634   -0.148318   -0.106881
  13 H   1.0000    1     1.008    3.989202    1.961999    1.312298
  14 H   1.0000    1     1.008    4.393122   -1.095761    2.571873

      -----------------------------------------------------------      
     |                   =====================                   |     
     |                           x T B                           |     
     |                   =====================                   |     
     |                         S. Grimme                         |     
     |          Mulliken Center for Theoretical Chemistry        |     
     |                    University of Bonn                     |     
      -----------------------------------------------------------      

   * xtb version 6.7.1 (edcfbbe) compiled by 'albert@albert-system' on 2024-07-22

   xtb is free software: you can redistribute it and/or modify it under
   the terms of the GNU Lesser General Public License as published by
   the Free Software Foundation, either version 3 of the License, or
   (at your option) any later version.
   
   xtb is distributed in the hope that it will be useful,
   but WITHOUT ANY WARRANTY; without even the implied warranty of
   MERCHANTABILITY or FITNESS FOR A PARTICULAR PURPOSE.  See the
   GNU Lesser General Public License for more details.
   
   Cite this work as:
   * C. Bannwarth, E. Caldeweyher, S. Ehlert, A. Hansen, P. Pracht,
     J. Seibert, S. Spicher, S. Grimme, WIREs Comput. Mol. Sci., 2020, 11,
     e01493. DOI: 10.1002/wcms.1493
   
   for GFN2-xTB:
   * C. Bannwarth, S. Ehlert and S. Grimme., J. Chem. Theory Comput., 2019,
     15, 1652-1671. DOI: 10.1021/acs.jctc.8b01176
   for GFN1-xTB:
   * S. Grimme, C. Bannwarth, P. Shushkov, J. Chem. Theory Comput., 2017,
     13, 1989-2009. DOI: 10.1021/acs.jctc.7b00118
   for GFN0-xTB:
   * P. Pracht, E. Caldeweyher, S. Ehlert, S. Grimme, ChemRxiv, 2019, preprint.
     DOI: 10.26434/chemrxiv.8326202.v1
   for GFN-FF:
   * S. Spicher and S. Grimme, Angew. Chem. Int. Ed., 2020, 59, 15665-15673.
     DOI: 10.1002/anie.202004239
   
   for ALPB and GBSA implicit solvation:
   * S. Ehlert, M. Stahn, S. Spicher, S. Grimme, J. Chem. Theory Comput.,
     2021, 17, 4250-4261. DOI: 10.1021/acs.jctc.1c00471
   
   for ddCOSMO and CPCM-X implicit solvation:
   * M. Stahn, S. Ehlert, S. Grimme, J. Phys. Chem. A,
     2023, XX, XXXX-XXXX. DOI: 10.1021/acs.jpca.3c04382
   
   for DFT-D4:
   * E. Caldeweyher, C. Bannwarth and S. Grimme, J. Chem. Phys., 2017,
     147, 034112. DOI: 10.1063/1.4993215
   * E. Caldeweyher, S. Ehlert, A. Hansen, H. Neugebauer, S. Spicher,
     C. Bannwarth and S. Grimme, J. Chem. Phys., 2019, 150, 154122.
     DOI: 10.1063/1.5090222
   * E. Caldeweyher, J.-M. Mewes, S. Ehlert and S. Grimme, Phys. Chem. Chem. Phys.
     2020, 22, 8499-8512. DOI: 10.1039/D0CP00502A
   
   for sTDA-xTB:
   * S. Grimme and C. Bannwarth, J. Chem. Phys., 2016, 145, 054103.
     DOI: 10.1063/1.4959605
   
   in the mass-spec context:
   * V. Asgeirsson, C. Bauer and S. Grimme, Chem. Sci., 2017, 8, 4879.
     DOI: 10.1039/c7sc00601b
   * J. Koopman and S. Grimme, ACS Omega 2019, 4, 12, 15120-15133.
     DOI: 10.1021/acsomega.9b02011
   
   for metadynamics refer to:
   * S. Grimme, J. Chem. Theory Comput., 2019, 155, 2847-2862
     DOI: 10.1021/acs.jctc.9b00143
   
   for SPH calculations refer to:
   * S. Spicher and S. Grimme, J. Chem. Theory Comput., 2021, 17, 1701-1714
     DOI: 10.1021/acs.jctc.0c01306
   
   for ONIOM refer to:
   * C. Plett, A. Katbashev, S. Ehlert, S. Grimme, M. Bursch,
     Phys. Chem. Chem. Phys., 2023, 25, 17860-17868. DOI: 10.1039/D3CP02178E
   
   for DIPRO refer to:
   * J. Kohn, N. Gildemeister, S. Grimme, D. Fazzi, A. Hansen,
     J. Chem. Phys., 2023, just accepted.
   
   for PTB refer to:
   * S. Grimme, M. Mueller, A. Hansen, J. Chem. Phys., 2023, 158, 124111.
     DOI: 10.1063/5.0137838
   
   with help from (in alphabetical order)
   P. Atkinson, C. Bannwarth, F. Bohle, G. Brandenburg, E. Caldeweyher
   M. Checinski, S. Dohm, S. Ehlert, S. Ehrlich, I. Gerasimov, C. Hölzer
   A. Katbashev, J. Kohn, J. Koopman, C. Lavigne, S. Lehtola, F. März, M. Müller,
   F. Musil, H. Neugebauer, J. Pisarek, C. Plett, P. Pracht, F. Pultar,
   J. Seibert, P. Shushkov, S. Spicher, M. Stahn, M. Steiner, T. Strunk,
   J. Stückrath, T. Rose, and J. Unsleber
   
 * started run on 2026/09/19 at 20:17:01.300     
   ID    Z sym.   atoms
    1    6 C      1-5
    2    1 H      6-15

           -------------------------------------------------
          |                Calculation Setup                |
           -------------------------------------------------

          program call               : /apps/eb/ORCA/6.1.1-gompi-2023b-avx2/bin/otool_xtb goat_XTB.xyz --grad -c 0 -u 0 -P 8 --namespace goat --input goat_XTB.input.tmp --acc 0.200000
          hostname                   : b3-21
          calculation namespace      : goat
          coordinate file            : goat_XTB.xyz
          omp threads                :                     8


           -------------------------------------------------
          |                 G F N 2 - x T B                 |
           -------------------------------------------------

        Reference                      10.1021/acs.jctc.8b01176
      * Hamiltonian:
        H0-scaling (s, p, d)           1.850000    2.230000    2.230000
        zeta-weighting                 0.500000
      * Dispersion:
        s8                             2.700000
        a1                             0.520000
        a2                             5.000000
        s9                             5.000000
      * Repulsion:
        kExp                           1.500000    1.000000
        rExp                           1.000000
      * Coulomb:
        alpha                          2.000000
        third order                    shell-resolved
        anisotropic                    true
        a3                             3.000000
        a5                             4.000000
        cn-shift                       1.200000
        cn-exp                         4.000000
        max-rad                        5.000000

q/qsh data taken from xtbrestart
CAMM data taken from xtbrestart

          ...................................................
          :                      SETUP                      :
          :.................................................:
          :  # basis functions                  30          :
          :  # atomic orbitals                  30          :
          :  # shells                           20          :
          :  # electrons                        30          :
          :  max. iterations                   250          :
          :  Hamiltonian                  GFN2-xTB          :
          :  restarted?                       true          :
          :  GBSA solvation                  false          :
          :  PC potential                    false          :
          :  electronic temp.          300.0000000     K    :
          :  accuracy                    0.2000000          :
          :  -> integral cutoff          0.3198970E+02      :
          :  -> integral neglect         0.2000000E-08      :
          :  -> SCF convergence          0.2000000E-06 Eh   :
          :  -> wf. convergence          0.2000000E-04 e    :
          :  Broyden damping             0.4000000          :
          :  net charge                          0          :
          :  unpaired electrons                  0          :
          ...................................................

 iter      E             dE          RMSdq      gap      omega  full diag
   1    -16.0467560 -0.160468E+02  0.403E-02    5.26       0.0  T
   2    -16.0467561 -0.719731E-07  0.241E-02    5.26       1.1  T
   3    -16.0467559  0.196640E-06  0.418E-03    5.26       6.2  T
   4    -16.0467561 -0.225268E-06  0.767E-04    5.26      33.7  T
   5    -16.0467561 -0.309783E-08  0.304E-04    5.26      84.9  T
   6    -16.0467561 -0.449774E-10  0.693E-05    5.26     372.4  T
   7    -16.0467561 -0.347811E-11  0.201E-05    5.26    1286.2  T

   *** convergence criteria satisfied after 7 iterations ***

         #    Occupation            Energy/Eh            Energy/eV
      -------------------------------------------------------------
         1        2.0000           -0.6189652             -16.8429
       ...           ...                  ...                  ...
         9        2.0000           -0.4762603             -12.9597
        10        2.0000           -0.4659812             -12.6800
        11        2.0000           -0.4564216             -12.4199
        12        2.0000           -0.4379905             -11.9183
        13        2.0000           -0.4273263             -11.6281
        14        2.0000           -0.4219440             -11.4817
        15        2.0000           -0.3824944             -10.4082 (HOMO)
        16                         -0.1890207              -5.1435 (LUMO)
        17                          0.0951524               2.5892
        18                          0.1208034               3.2872
        19                          0.1394631               3.7950
        20                          0.1671454               4.5483
       ...                                ...                  ...
        30                          0.6497591              17.6808
      -------------------------------------------------------------
                  HL-Gap            0.1934738 Eh            5.2647 eV
             Fermi-level           -0.2857576 Eh           -7.7759 eV

 SCC (total)                   0 d,  0 h,  0 min,  0.024 sec
 SCC setup                      ...        0 min,  0.000 sec (  0.905%)
 Dispersion                     ...        0 min,  0.000 sec (  1.439%)
 classical contributions        ...        0 min,  0.000 sec (  0.662%)
 integral evaluation            ...        0 min,  0.001 sec (  3.793%)
 iterations                     ...        0 min,  0.019 sec ( 81.369%)
 molecular gradient             ...        0 min,  0.003 sec ( 11.010%)
 printout                       ...        0 min,  0.000 sec (  0.745%)

         :::::::::::::::::::::::::::::::::::::::::::::::::::::
         ::                     SUMMARY                     ::
         :::::::::::::::::::::::::::::::::::::::::::::::::::::
         :: total energy             -15.776303067485 Eh    ::
         :: gradient norm              0.001957637070 Eh/a0 ::
         :: HOMO-LUMO gap              5.264689357464 eV    ::
         ::.................................................::
         :: SCC energy               -16.046751798778 Eh    ::
         :: -> isotropic ES            0.003114604199 Eh    ::
         :: -> anisotropic ES          0.004934860950 Eh    ::
         :: -> anisotropic XC          0.011424260955 Eh    ::
         :: -> dispersion             -0.007242943303 Eh    ::
         :: repulsion energy           0.270448731293 Eh    ::
         :: add. restraining           0.000000000000 Eh    ::
         :: total charge               0.000000000000 e     ::
         :::::::::::::::::::::::::::::::::::::::::::::::::::::


Property printout bound to 'properties.out'

           -------------------------------------------------
          | TOTAL ENERGY              -15.776303067485 Eh   |
          | GRADIENT NORM               0.001957637070 Eh/α |
          | HOMO-LUMO GAP               5.264689357464 eV   |
           -------------------------------------------------

------------------------------------------------------------------------
 * finished run on 2026/09/19 at 20:17:01.340     
------------------------------------------------------------------------
 total:
 * wall-time:     0 d,  0 h,  0 min,  0.039 sec
 *  cpu-time:     0 d,  0 h,  0 min,  0.189 sec
 * ratio c/w:     4.820 speedup
 SCF:
 * wall-time:     0 d,  0 h,  0 min,  0.024 sec
 *  cpu-time:     0 d,  0 h,  0 min,  0.119 sec
 * ratio c/w:     4.980 speedup


-------------------------   --------------------
FINAL SINGLE POINT ENERGY       -15.776303067490
-------------------------   --------------------


-------------
DIPOLE MOMENT
-------------
                                X             Y             Z
Total Dipole Moment    :     -0.02300       0.00800       0.01300
                        -----------------------------------------
Magnitude (a.u.)       :      0.02760
Magnitude (Debye)      :      0.07016


------------------
CARTESIAN GRADIENT
------------------

   1   C   :   -0.000317091   -0.000093252   -0.000185240
   2   C   :   -0.000152258    0.000633008   -0.000545132
   3   C   :   -0.000078785   -0.000433523    0.000198446
   4   C   :   -0.000372472   -0.000324577   -0.000064966
   5   C   :    0.001146602    0.000058413    0.000017230
   6   H   :   -0.000268968    0.000305915    0.000088368
   7   H   :    0.000282270   -0.000387088    0.000171143
   8   H   :    0.000279277   -0.000103280    0.000224314
   9   H   :    0.000174220   -0.000028533    0.000181747
  10   H   :    0.000030139    0.000051319   -0.000075753
  11   H   :    0.000251540    0.000026058   -0.000046792
  12   H   :   -0.000244486   -0.000001095    0.000044542
  13   H   :   -0.000225864    0.000314698   -0.000083740
  14   H   :   -0.000090647   -0.000108901    0.000170892
  15   H   :   -0.000413479    0.000090839   -0.000095059

Difference to translation invariance:
           :   -0.0000000000    0.0000000000    0.0000000000

Difference to rotation invariance:
           :   -0.0000000091    0.0000000041   -0.0000000030

Norm of the Cartesian gradient     ...    0.0019576371
RMS gradient                       ...    0.0002918273
MAX gradient                       ...    0.0011466025
------------------------------------------------------------------------------
                         ORCA GEOMETRY RELAXATION STEP
------------------------------------------------------------------------------

Reading the OPT-File                    .... done
Getting information on internals        .... done
Copying old internal coords+grads       .... done
Making the new internal coordinates     .... (2022 redundants) done
Validating the new internal coordinates .... (2022 redundants) done
Calculating the B-matrix                .... done
Calculating the G,G- and P matrices     .... done
Transforming gradient to internals      .... done
Projecting the internal gradient        .... done
Number of atoms                         ....  15
Number of internal coordinates          ....  58
Current Energy                          ....   -15.776303067 Eh
Current gradient norm                   ....     0.001957637 Eh/bohr
Maximum allowed component of the step   ....  0.300
Current trust radius                    ....  0.700
Updating the Hessian (BFGS)             .... done
Forming the augmented Hessian           .... done
Diagonalizing the augmented Hessian     .... done
Last element of RFO vector              ....  0.994398095
Lowest eigenvalues of augmented Hessian:
 -0.000040211  0.002195076  0.004124247  0.015508007  0.028199304
Length of the computed step             ....  0.106295162
The final length of the internal step   ....  0.106295162
Converting the step to Cartesian space:
 Initial RMS(Int)=    0.0139572386
Transforming coordinates:
 Iter   0:  RMS(Cart)=    0.0219608203 RMS(Int)=    0.0139569077
done
Storing new coordinates                 .... done
The predicted energy change is          ....    -0.000020333
Previously predicted energy change      ....    -0.000022370
Actually observed energy change         ....    -0.000032643
Ratio of predicted to observed change   ....     1.459249002
New trust radius                        ....     0.700000000

                                .--------------------.
          ----------------------|Geometry convergence|-------------------------
          Item                value                   Tolerance       Converged
          ---------------------------------------------------------------------
          Energy change      -0.0000326430            0.0000050000      NO
          RMS gradient        0.0001872243            0.0001000000      NO
          MAX gradient        0.0005199096            0.0003000000      NO
          RMS step            0.0139572386            0.0020000000      NO
          MAX step            0.0484354598            0.0040000000      NO
          -------------------------------------------------------------------------
          ........................................................
          Max(Bonds)      0.0007      Max(Angles)    0.16
          Max(Dihed)        2.78      Max(Improp)    0.00
          ---------------------------------------------------------------------

    ---------------------------------------------------------------------------
                         Redundant Internal Coordinates
                            (Angstroem and degrees)

        Definition                    Value    dE/dq     Step     New-Value
    ----------------------------------------------------------------------------
     1. B(C   1,C   0)                1.4932  0.000132  0.0005    1.4937   
     2. B(C   2,C   1)                1.3221  0.000202 -0.0001    1.3221   
     3. B(C   3,C   2)                1.4961  0.000067  0.0000    1.4962   
     4. B(C   4,C   3)                1.5297  0.000430  0.0007    1.5303   
     5. B(H   5,C   0)                1.0873 -0.000064 -0.0002    1.0871   
     6. B(H   6,C   0)                1.0900 -0.000146 -0.0005    1.0894   
     7. B(H   7,C   0)                1.0894 -0.000130  0.0000    1.0895   
     8. B(H   8,C   1)                1.0828 -0.000153 -0.0001    1.0827   
     9. B(H   9,C   2)                1.0829 -0.000094  0.0000    1.0829   
    10. B(H  10,C   3)                1.0919  0.000054 -0.0001    1.0918   
    11. B(H  11,C   3)                1.0941 -0.000051 -0.0001    1.0940   
    12. B(H  12,C   4)                1.0871 -0.000184 -0.0001    1.0870   
    13. B(H  13,C   4)                1.0878 -0.000049 -0.0001    1.0877   
    14. B(H  14,C   4)                1.0876 -0.000142 -0.0004    1.0872   
    15. A(H   6,C   0,H   7)          107.84  0.000429   -0.07    107.77   
    16. A(C   1,C   0,H   5)          111.16  0.000468   -0.06    111.10   
    17. A(C   1,C   0,H   6)          110.14 -0.000217    0.11    110.25   
    18. A(C   1,C   0,H   7)          110.28 -0.000198   -0.04    110.24   
    19. A(H   5,C   0,H   6)          108.62 -0.000170    0.11    108.73   
    20. A(H   5,C   0,H   7)          108.72 -0.000314   -0.05    108.67   
    21. A(C   2,C   1,H   8)          119.81 -0.000039   -0.01    119.80   
    22. A(C   0,C   1,H   8)          115.46  0.000285   -0.03    115.43   
    23. A(C   0,C   1,C   2)          124.73 -0.000246    0.04    124.77   
    24. A(C   3,C   2,H   9)          115.24  0.000023    0.10    115.34   
    25. A(C   1,C   2,H   9)          119.91  0.000059   -0.16    119.75   
    26. A(C   1,C   2,C   3)          124.85 -0.000083    0.06    124.91   
    27. A(C   4,C   3,H  10)          109.58 -0.000223    0.06    109.64   
    28. A(C   2,C   3,H  10)          109.91  0.000155   -0.02    109.89   
    29. A(C   2,C   3,C   4)          111.17  0.000050   -0.00    111.16   
    30. A(H  10,C   3,H  11)          108.04 -0.000005   -0.02    108.02   
    31. A(C   4,C   3,H  11)          108.98  0.000207   -0.07    108.92   
    32. A(C   2,C   3,H  11)          109.10 -0.000186    0.04    109.14   
    33. A(H  13,C   4,H  14)          108.27 -0.000162    0.04    108.31   
    34. A(H  12,C   4,H  14)          108.77  0.000520   -0.03    108.74   
    35. A(C   3,C   4,H  14)          110.35 -0.000420    0.08    110.42   
    36. A(H  12,C   4,H  13)          108.60 -0.000029    0.05    108.64   
    37. A(C   3,C   4,H  13)          110.18 -0.000064   -0.07    110.11   
    38. A(C   3,C   4,H  12)          110.61  0.000161   -0.05    110.56   
    39. D(C   2,C   1,C   0,H   5)      4.90  0.000183   -2.61      2.29   
    40. D(C   2,C   1,C   0,H   6)   -115.55  0.000234   -2.78   -118.32   
    41. D(H   8,C   1,C   0,H   6)     63.69  0.000168   -2.46     61.23   
    42. D(C   2,C   1,C   0,H   7)    125.55 -0.000037   -2.73    122.81   
    43. D(H   8,C   1,C   0,H   5)   -175.86  0.000117   -2.30   -178.16   
    44. D(C   3,C   2,C   1,C   0)   -179.87 -0.000030    0.14   -179.73   
    45. D(C   3,C   2,C   1,H   8)      0.92  0.000037   -0.18      0.74   
    46. D(H   9,C   2,C   1,H   8)    179.82  0.000014   -0.01    179.80   
    47. D(H   9,C   2,C   1,C   0)     -0.97 -0.000052    0.31     -0.66   
    48. D(H  11,C   3,C   2,C   1)   -120.66  0.000068    0.04   -120.62   
    49. D(H  10,C   3,C   2,H   9)    178.69  0.000064   -0.12    178.57   
    50. D(H  10,C   3,C   2,C   1)     -2.37  0.000043    0.04     -2.33   
    51. D(C   4,C   3,C   2,H   9)    -59.81 -0.000079   -0.06    -59.87   
    52. D(C   4,C   3,C   2,C   1)    119.13 -0.000100    0.10    119.23   
    53. D(H  12,C   4,C   3,C   2)   -178.93  0.000029   -0.75   -179.69   
    54. D(H  13,C   4,C   3,H  11)   -179.13  0.000120   -0.78   -179.91   
    55. D(H  13,C   4,C   3,H  10)     62.84  0.000134   -0.76     62.08   
    56. D(H  13,C   4,C   3,C   2)    -58.85  0.000055   -0.78    -59.63   
    57. D(H  12,C   4,C   3,H  11)     60.79  0.000094   -0.76     60.03   
    58. D(H  12,C   4,C   3,H  10)    -57.24  0.000107   -0.74    -57.98   
    ----------------------------------------------------------------------------

Geometry step timings:
Preparation and reading OPT file:      0.000 s ( 0.975 %)
Internal coordinates            :      0.000 s ( 1.045 %)
B/P matrices and projection     :      0.000 s (32.869 %)
Hessian update/contruction      :      0.000 s (12.744 %)
Making the step                 :      0.000 s (23.747 %)
Converting the step to Cartesian:      0.000 s ( 2.925 %)
Storing new data                :      0.000 s ( 1.393 %)
Checking convergence            :      0.000 s ( 1.950 %)
Final printing                  :      0.000 s (22.284 %)
Total time                      :      0.001 s

Time for energy+gradient        :      0.048 s
Time for complete geometry iter :      0.050 s

         *************************************************************
         *                GEOMETRY OPTIMIZATION CYCLE  10            *
         *************************************************************
---------------------------------
CARTESIAN COORDINATES (ANGSTROEM)
---------------------------------
  C    -2.503507    0.435667    0.389978
  C    -1.171617    0.311098   -0.274675
  C    -0.160625   -0.402572    0.190554
  C     1.176442   -0.524798   -0.469601
  C     2.290839    0.001044    0.437911
  H    -2.523064   -0.106737    1.331945
  H    -3.286213    0.041342   -0.257101
  H    -2.730390    1.483070    0.585941
  H    -1.064531    0.852188   -1.206381
  H    -0.267575   -0.940831    1.124125
  H     1.177909    0.028356   -1.410846
  H     1.370079   -1.577628   -0.695425
  H     3.256631   -0.087260   -0.053083
  H     2.116313    1.047908    0.676172
  H     2.319310   -0.560847    1.368211

----------------------------
CARTESIAN COORDINATES (A.U.)
----------------------------
  NO LB    ZA    FRAG    MASS        X           Y           Z
   0 C   6.0000    1    12.011   -4.730943    0.823292    0.736951
   1 C   6.0000    1    12.011   -2.214035    0.587891   -0.519060
   2 C   6.0000    1    12.011   -0.303538   -0.760750    0.360094
   3 C   6.0000    1    12.011    2.223152   -0.991724   -0.887418
   4 C   6.0000    1    12.011    4.329059    0.001973    0.827531
   5 H   1.0000    1     1.008   -4.767900   -0.201704    2.517010
   6 H   1.0000    1     1.008   -6.210043    0.078125   -0.485851
   7 H   1.0000    1     1.008   -5.159690    2.802596    1.107269
   8 H   1.0000    1     1.008   -2.011671    1.610403   -2.279730
   9 H   1.0000    1     1.008   -0.505643   -1.777914    2.124289
  10 H   1.0000    1     1.008    2.225926    0.053585   -2.666112
  11 H   1.0000    1     1.008    2.589073   -2.981285   -1.314163
  12 H   1.0000    1     1.008    6.154140   -0.164898   -0.100313
  13 H   1.0000    1     1.008    3.999252    1.980259    1.277781
  14 H   1.0000    1     1.008    4.382861   -1.059848    2.585543

      -----------------------------------------------------------      
     |                   =====================                   |     
     |                           x T B                           |     
     |                   =====================                   |     
     |                         S. Grimme                         |     
     |          Mulliken Center for Theoretical Chemistry        |     
     |                    University of Bonn                     |     
      -----------------------------------------------------------      

   * xtb version 6.7.1 (edcfbbe) compiled by 'albert@albert-system' on 2024-07-22

   xtb is free software: you can redistribute it and/or modify it under
   the terms of the GNU Lesser General Public License as published by
   the Free Software Foundation, either version 3 of the License, or
   (at your option) any later version.
   
   xtb is distributed in the hope that it will be useful,
   but WITHOUT ANY WARRANTY; without even the implied warranty of
   MERCHANTABILITY or FITNESS FOR A PARTICULAR PURPOSE.  See the
   GNU Lesser General Public License for more details.
   
   Cite this work as:
   * C. Bannwarth, E. Caldeweyher, S. Ehlert, A. Hansen, P. Pracht,
     J. Seibert, S. Spicher, S. Grimme, WIREs Comput. Mol. Sci., 2020, 11,
     e01493. DOI: 10.1002/wcms.1493
   
   for GFN2-xTB:
   * C. Bannwarth, S. Ehlert and S. Grimme., J. Chem. Theory Comput., 2019,
     15, 1652-1671. DOI: 10.1021/acs.jctc.8b01176
   for GFN1-xTB:
   * S. Grimme, C. Bannwarth, P. Shushkov, J. Chem. Theory Comput., 2017,
     13, 1989-2009. DOI: 10.1021/acs.jctc.7b00118
   for GFN0-xTB:
   * P. Pracht, E. Caldeweyher, S. Ehlert, S. Grimme, ChemRxiv, 2019, preprint.
     DOI: 10.26434/chemrxiv.8326202.v1
   for GFN-FF:
   * S. Spicher and S. Grimme, Angew. Chem. Int. Ed., 2020, 59, 15665-15673.
     DOI: 10.1002/anie.202004239
   
   for ALPB and GBSA implicit solvation:
   * S. Ehlert, M. Stahn, S. Spicher, S. Grimme, J. Chem. Theory Comput.,
     2021, 17, 4250-4261. DOI: 10.1021/acs.jctc.1c00471
   
   for ddCOSMO and CPCM-X implicit solvation:
   * M. Stahn, S. Ehlert, S. Grimme, J. Phys. Chem. A,
     2023, XX, XXXX-XXXX. DOI: 10.1021/acs.jpca.3c04382
   
   for DFT-D4:
   * E. Caldeweyher, C. Bannwarth and S. Grimme, J. Chem. Phys., 2017,
     147, 034112. DOI: 10.1063/1.4993215
   * E. Caldeweyher, S. Ehlert, A. Hansen, H. Neugebauer, S. Spicher,
     C. Bannwarth and S. Grimme, J. Chem. Phys., 2019, 150, 154122.
     DOI: 10.1063/1.5090222
   * E. Caldeweyher, J.-M. Mewes, S. Ehlert and S. Grimme, Phys. Chem. Chem. Phys.
     2020, 22, 8499-8512. DOI: 10.1039/D0CP00502A
   
   for sTDA-xTB:
   * S. Grimme and C. Bannwarth, J. Chem. Phys., 2016, 145, 054103.
     DOI: 10.1063/1.4959605
   
   in the mass-spec context:
   * V. Asgeirsson, C. Bauer and S. Grimme, Chem. Sci., 2017, 8, 4879.
     DOI: 10.1039/c7sc00601b
   * J. Koopman and S. Grimme, ACS Omega 2019, 4, 12, 15120-15133.
     DOI: 10.1021/acsomega.9b02011
   
   for metadynamics refer to:
   * S. Grimme, J. Chem. Theory Comput., 2019, 155, 2847-2862
     DOI: 10.1021/acs.jctc.9b00143
   
   for SPH calculations refer to:
   * S. Spicher and S. Grimme, J. Chem. Theory Comput., 2021, 17, 1701-1714
     DOI: 10.1021/acs.jctc.0c01306
   
   for ONIOM refer to:
   * C. Plett, A. Katbashev, S. Ehlert, S. Grimme, M. Bursch,
     Phys. Chem. Chem. Phys., 2023, 25, 17860-17868. DOI: 10.1039/D3CP02178E
   
   for DIPRO refer to:
   * J. Kohn, N. Gildemeister, S. Grimme, D. Fazzi, A. Hansen,
     J. Chem. Phys., 2023, just accepted.
   
   for PTB refer to:
   * S. Grimme, M. Mueller, A. Hansen, J. Chem. Phys., 2023, 158, 124111.
     DOI: 10.1063/5.0137838
   
   with help from (in alphabetical order)
   P. Atkinson, C. Bannwarth, F. Bohle, G. Brandenburg, E. Caldeweyher
   M. Checinski, S. Dohm, S. Ehlert, S. Ehrlich, I. Gerasimov, C. Hölzer
   A. Katbashev, J. Kohn, J. Koopman, C. Lavigne, S. Lehtola, F. März, M. Müller,
   F. Musil, H. Neugebauer, J. Pisarek, C. Plett, P. Pracht, F. Pultar,
   J. Seibert, P. Shushkov, S. Spicher, M. Stahn, M. Steiner, T. Strunk,
   J. Stückrath, T. Rose, and J. Unsleber
   
 * started run on 2026/09/19 at 20:17:01.350     
   ID    Z sym.   atoms
    1    6 C      1-5
    2    1 H      6-15

           -------------------------------------------------
          |                Calculation Setup                |
           -------------------------------------------------

          program call               : /apps/eb/ORCA/6.1.1-gompi-2023b-avx2/bin/otool_xtb goat_XTB.xyz --grad -c 0 -u 0 -P 8 --namespace goat --input goat_XTB.input.tmp --acc 0.200000
          hostname                   : b3-21
          calculation namespace      : goat
          coordinate file            : goat_XTB.xyz
          omp threads                :                     8


           -------------------------------------------------
          |                 G F N 2 - x T B                 |
           -------------------------------------------------

        Reference                      10.1021/acs.jctc.8b01176
      * Hamiltonian:
        H0-scaling (s, p, d)           1.850000    2.230000    2.230000
        zeta-weighting                 0.500000
      * Dispersion:
        s8                             2.700000
        a1                             0.520000
        a2                             5.000000
        s9                             5.000000
      * Repulsion:
        kExp                           1.500000    1.000000
        rExp                           1.000000
      * Coulomb:
        alpha                          2.000000
        third order                    shell-resolved
        anisotropic                    true
        a3                             3.000000
        a5                             4.000000
        cn-shift                       1.200000
        cn-exp                         4.000000
        max-rad                        5.000000

q/qsh data taken from xtbrestart
CAMM data taken from xtbrestart

          ...................................................
          :                      SETUP                      :
          :.................................................:
          :  # basis functions                  30          :
          :  # atomic orbitals                  30          :
          :  # shells                           20          :
          :  # electrons                        30          :
          :  max. iterations                   250          :
          :  Hamiltonian                  GFN2-xTB          :
          :  restarted?                       true          :
          :  GBSA solvation                  false          :
          :  PC potential                    false          :
          :  electronic temp.          300.0000000     K    :
          :  accuracy                    0.2000000          :
          :  -> integral cutoff          0.3198970E+02      :
          :  -> integral neglect         0.2000000E-08      :
          :  -> SCF convergence          0.2000000E-06 Eh   :
          :  -> wf. convergence          0.2000000E-04 e    :
          :  Broyden damping             0.4000000          :
          :  net charge                          0          :
          :  unpaired electrons                  0          :
          ...................................................

 iter      E             dE          RMSdq      gap      omega  full diag
   1    -16.0468887 -0.160469E+02  0.484E-02    5.27       0.0  T
   2    -16.0468888 -0.536336E-07  0.289E-02    5.27       1.0  T
   3    -16.0468887  0.117477E-06  0.342E-03    5.27       7.5  T
   4    -16.0468888 -0.148186E-06  0.758E-04    5.27      34.1  T
   5    -16.0468888 -0.922043E-09  0.245E-04    5.27     105.5  T
   6    -16.0468888 -0.559304E-10  0.589E-05    5.27     438.1  T
   7    -16.0468888 -0.462208E-11  0.205E-05    5.27    1261.3  T

   *** convergence criteria satisfied after 7 iterations ***

         #    Occupation            Energy/Eh            Energy/eV
      -------------------------------------------------------------
         1        2.0000           -0.6189334             -16.8420
       ...           ...                  ...                  ...
         9        2.0000           -0.4762855             -12.9604
        10        2.0000           -0.4658892             -12.6775
        11        2.0000           -0.4564149             -12.4197
        12        2.0000           -0.4380304             -11.9194
        13        2.0000           -0.4274415             -11.6313
        14        2.0000           -0.4219766             -11.4826
        15        2.0000           -0.3825166             -10.4088 (HOMO)
        16                         -0.1890008              -5.1430 (LUMO)
        17                          0.0947486               2.5782
        18                          0.1209749               3.2919
        19                          0.1388750               3.7790
        20                          0.1674278               4.5559
       ...                                ...                  ...
        30                          0.6497791              17.6814
      -------------------------------------------------------------
                  HL-Gap            0.1935158 Eh            5.2658 eV
             Fermi-level           -0.2857587 Eh           -7.7759 eV

 SCC (total)                   0 d,  0 h,  0 min,  0.011 sec
 SCC setup                      ...        0 min,  0.001 sec (  8.857%)
 Dispersion                     ...        0 min,  0.000 sec (  3.058%)
 classical contributions        ...        0 min,  0.000 sec (  2.203%)
 integral evaluation            ...        0 min,  0.001 sec (  4.990%)
 iterations                     ...        0 min,  0.007 sec ( 68.398%)
 molecular gradient             ...        0 min,  0.001 sec ( 11.098%)
 printout                       ...        0 min,  0.000 sec (  1.245%)

         :::::::::::::::::::::::::::::::::::::::::::::::::::::
         ::                     SUMMARY                     ::
         :::::::::::::::::::::::::::::::::::::::::::::::::::::
         :: total energy             -15.776330211707 Eh    ::
         :: gradient norm              0.002269595391 Eh/a0 ::
         :: HOMO-LUMO gap              5.265833498587 eV    ::
         ::.................................................::
         :: SCC energy               -16.046884534521 Eh    ::
         :: -> isotropic ES            0.003117106707 Eh    ::
         :: -> anisotropic ES          0.004934730936 Eh    ::
         :: -> anisotropic XC          0.011412891463 Eh    ::
         :: -> dispersion             -0.007241429948 Eh    ::
         :: repulsion energy           0.270554322814 Eh    ::
         :: add. restraining           0.000000000000 Eh    ::
         :: total charge               0.000000000000 e     ::
         :::::::::::::::::::::::::::::::::::::::::::::::::::::


Property printout bound to 'properties.out'

           -------------------------------------------------
          | TOTAL ENERGY              -15.776330211707 Eh   |
          | GRADIENT NORM               0.002269595391 Eh/α |
          | HOMO-LUMO GAP               5.265833498587 eV   |
           -------------------------------------------------

------------------------------------------------------------------------
 * finished run on 2026/09/19 at 20:17:01.398     
------------------------------------------------------------------------
 total:
 * wall-time:     0 d,  0 h,  0 min,  0.048 sec
 *  cpu-time:     0 d,  0 h,  0 min,  0.278 sec
 * ratio c/w:     5.767 speedup
 SCF:
 * wall-time:     0 d,  0 h,  0 min,  0.011 sec
 *  cpu-time:     0 d,  0 h,  0 min,  0.065 sec
 * ratio c/w:     5.959 speedup


-------------------------   --------------------
FINAL SINGLE POINT ENERGY       -15.776330211710
-------------------------   --------------------


-------------
DIPOLE MOMENT
-------------
                                X             Y             Z
Total Dipole Moment    :     -0.02100       0.01000       0.01400
                        -----------------------------------------
Magnitude (a.u.)       :      0.02715
Magnitude (Debye)      :      0.06900


------------------
CARTESIAN GRADIENT
------------------

   1   C   :   -0.000790352   -0.000070463   -0.000152331
   2   C   :    0.000094490    0.000329442   -0.000468060
   3   C   :    0.000204971   -0.000206411    0.000127487
   4   C   :   -0.000514411   -0.000269247   -0.000495074
   5   C   :    0.001405460   -0.000085463    0.000610585
   6   H   :   -0.000192131    0.000314331   -0.000006739
   7   H   :    0.000312554   -0.000143405    0.000284346
   8   H   :    0.000232010   -0.000257941    0.000231901
   9   H   :    0.000179663   -0.000114561    0.000239629
  10   H   :   -0.000216563    0.000144986   -0.000101630
  11   H   :    0.000137553   -0.000059532   -0.000045721
  12   H   :   -0.000118165    0.000091314    0.000022408
  13   H   :   -0.000272314    0.000191105   -0.000049003
  14   H   :   -0.000177607   -0.000133852    0.000058553
  15   H   :   -0.000285158    0.000269698   -0.000256352

Difference to translation invariance:
           :    0.0000000000    0.0000000000    0.0000000000

Difference to rotation invariance:
           :   -0.0000000124    0.0000000104   -0.0000000031

Norm of the Cartesian gradient     ...    0.0022695954
RMS gradient                       ...    0.0003383313
MAX gradient                       ...    0.0014054599
------------------------------------------------------------------------------
                         ORCA GEOMETRY RELAXATION STEP
------------------------------------------------------------------------------

Reading the OPT-File                    .... done
Getting information on internals        .... done
Copying old internal coords+grads       .... done
Making the new internal coordinates     .... (2022 redundants) done
Validating the new internal coordinates .... (2022 redundants) done
Calculating the B-matrix                .... done
Calculating the G,G- and P matrices     .... done
Transforming gradient to internals      .... done
Projecting the internal gradient        .... done
Number of atoms                         ....  15
Number of internal coordinates          ....  58
Current Energy                          ....   -15.776330212 Eh
Current gradient norm                   ....     0.002269595 Eh/bohr
Maximum allowed component of the step   ....  0.300
Current trust radius                    ....  0.700
Updating the Hessian (BFGS)             .... done
Forming the augmented Hessian           .... done
Diagonalizing the augmented Hessian     .... done
Last element of RFO vector              ....  0.997878852
Lowest eigenvalues of augmented Hessian:
 -0.000017147  0.001887343  0.003457353  0.015507717  0.028213665
Length of the computed step             ....  0.065236742
The final length of the internal step   ....  0.065236742
Converting the step to Cartesian space:
 Initial RMS(Int)=    0.0085660039
Transforming coordinates:
 Iter   0:  RMS(Cart)=    0.0130605822 RMS(Int)=    1.1646770866
done
Storing new coordinates                 .... done
The predicted energy change is          ....    -0.000008610
Previously predicted energy change      ....    -0.000020333
Actually observed energy change         ....    -0.000027144
Ratio of predicted to observed change   ....     1.334998232
New trust radius                        ....     0.700000000

                                .--------------------.
          ----------------------|Geometry convergence|-------------------------
          Item                value                   Tolerance       Converged
          ---------------------------------------------------------------------
          Energy change      -0.0000271442            0.0000050000      NO
          RMS gradient        0.0002069288            0.0001000000      NO
          MAX gradient        0.0007868751            0.0003000000      NO
          RMS step            0.0085660039            0.0020000000      NO
          MAX step            0.0282047189            0.0040000000      NO
          -------------------------------------------------------------------------
          ........................................................
          Max(Bonds)      0.0006      Max(Angles)    0.14
          Max(Dihed)        1.62      Max(Improp)    0.00
          ---------------------------------------------------------------------

    ---------------------------------------------------------------------------
                         Redundant Internal Coordinates
                            (Angstroem and degrees)

        Definition                    Value    dE/dq     Step     New-Value
    ----------------------------------------------------------------------------
     1. B(C   1,C   0)                1.4937  0.000536 -0.0003    1.4934   
     2. B(C   2,C   1)                1.3221  0.000111 -0.0001    1.3220   
     3. B(C   3,C   2)                1.4962  0.000225 -0.0002    1.4960   
     4. B(C   4,C   3)                1.5303  0.000787 -0.0006    1.5297   
     5. B(H   5,C   0)                1.0871 -0.000159  0.0001    1.0872   
     6. B(H   6,C   0)                1.0894 -0.000342  0.0002    1.0896   
     7. B(H   7,C   0)                1.0895 -0.000255  0.0003    1.0897   
     8. B(H   8,C   1)                1.0827 -0.000246  0.0003    1.0830   
     9. B(H   9,C   2)                1.0829 -0.000138  0.0002    1.0831   
    10. B(H  10,C   3)                1.0918  0.000009 -0.0001    1.0917   
    11. B(H  11,C   3)                1.0940 -0.000113  0.0001    1.0942   
    12. B(H  12,C   4)                1.0870 -0.000235  0.0003    1.0873   
    13. B(H  13,C   4)                1.0877 -0.000088  0.0000    1.0878   
    14. B(H  14,C   4)                1.0872 -0.000366  0.0002    1.0874   
    15. A(H   6,C   0,H   7)          107.77  0.000287   -0.14    107.63   
    16. A(C   1,C   0,H   5)          111.10  0.000312   -0.08    111.02   
    17. A(C   1,C   0,H   6)          110.25 -0.000030    0.05    110.30   
    18. A(C   1,C   0,H   7)          110.24 -0.000109    0.01    110.25   
    19. A(H   5,C   0,H   6)          108.73 -0.000139    0.08    108.81   
    20. A(H   5,C   0,H   7)          108.67 -0.000326    0.08    108.74   
    21. A(C   2,C   1,H   8)          119.80 -0.000139    0.02    119.82   
    22. A(C   0,C   1,H   8)          115.43  0.000243   -0.06    115.37   
    23. A(C   0,C   1,C   2)          124.77 -0.000104    0.04    124.81   
    24. A(C   3,C   2,H   9)          115.34  0.000197    0.01    115.35   
    25. A(C   1,C   2,H   9)          119.75 -0.000301   -0.02    119.72   
    26. A(C   1,C   2,C   3)          124.91  0.000105    0.02    124.92   
    27. A(C   4,C   3,H  10)          109.64 -0.000083    0.05    109.70   
    28. A(C   2,C   3,H  10)          109.89  0.000098   -0.04    109.85   
    29. A(C   2,C   3,C   4)          111.16  0.000020   -0.00    111.16   
    30. A(H  10,C   3,H  11)          108.02 -0.000033    0.00    108.02   
    31. A(C   4,C   3,H  11)          108.92  0.000077   -0.05    108.87   
    32. A(C   2,C   3,H  11)          109.14 -0.000080    0.04    109.18   
    33. A(H  13,C   4,H  14)          108.31 -0.000170    0.05    108.36   
    34. A(H  12,C   4,H  14)          108.74  0.000436   -0.13    108.61   
    35. A(C   3,C   4,H  14)          110.42 -0.000164    0.08    110.50   
    36. A(H  12,C   4,H  13)          108.64  0.000089   -0.00    108.64   
    37. A(C   3,C   4,H  13)          110.11 -0.000283    0.03    110.14   
    38. A(C   3,C   4,H  12)          110.56  0.000099   -0.03    110.53   
    39. D(C   2,C   1,C   0,H   5)      2.29  0.000135   -1.54      0.75   
    40. D(C   2,C   1,C   0,H   6)   -118.32  0.000126   -1.62   -119.94   
    41. D(H   8,C   1,C   0,H   6)     61.23  0.000078   -1.47     59.76   
    42. D(C   2,C   1,C   0,H   7)    122.81 -0.000142   -1.49    121.33   
    43. D(H   8,C   1,C   0,H   5)   -178.16  0.000088   -1.39   -179.55   
    44. D(C   3,C   2,C   1,C   0)   -179.73 -0.000057    0.13   -179.60   
    45. D(C   3,C   2,C   1,H   8)      0.74 -0.000008   -0.03      0.71   
    46. D(H   9,C   2,C   1,H   8)    179.80  0.000012   -0.00    179.80   
    47. D(H   9,C   2,C   1,C   0)     -0.66 -0.000037    0.15     -0.51   
    48. D(H  11,C   3,C   2,C   1)   -120.62  0.000040   -0.00   -120.62   
    49. D(H  10,C   3,C   2,H   9)    178.57 -0.000006   -0.03    178.54   
    50. D(H  10,C   3,C   2,C   1)     -2.33  0.000009   -0.00     -2.34   
    51. D(C   4,C   3,C   2,H   9)    -59.87 -0.000031    0.01    -59.86   
    52. D(C   4,C   3,C   2,C   1)    119.23 -0.000016    0.03    119.26   
    53. D(H  12,C   4,C   3,C   2)   -179.69  0.000013   -0.64   -180.33   
    54. D(H  13,C   4,C   3,H  11)   -179.91  0.000043   -0.66   -180.57   
    55. D(H  13,C   4,C   3,H  10)     62.08  0.000085   -0.66     61.42   
    56. D(H  13,C   4,C   3,C   2)    -59.63  0.000005   -0.64    -60.27   
    57. D(H  12,C   4,C   3,H  11)     60.03  0.000050   -0.66     59.37   
    58. D(H  12,C   4,C   3,H  10)    -57.98  0.000093   -0.66    -58.64   
    ----------------------------------------------------------------------------

Geometry step timings:
Preparation and reading OPT file:      0.000 s ( 1.094 %)
Internal coordinates            :      0.000 s ( 1.094 %)
B/P matrices and projection     :      0.000 s (32.331 %)
Hessian update/contruction      :      0.000 s (12.987 %)
Making the step                 :      0.000 s (26.999 %)
Converting the step to Cartesian:      0.000 s ( 2.802 %)
Storing new data                :      0.000 s ( 1.367 %)
Checking convergence            :      0.000 s ( 1.914 %)
Final printing                  :      0.000 s (19.412 %)
Total time                      :      0.001 s

Time for energy+gradient        :      0.056 s
Time for complete geometry iter :      0.058 s

         *************************************************************
         *                GEOMETRY OPTIMIZATION CYCLE  11            *
         *************************************************************
---------------------------------
CARTESIAN COORDINATES (ANGSTROEM)
---------------------------------
  C    -2.503524    0.434409    0.390119
  C    -1.172571    0.307403   -0.275254
  C    -0.160215   -0.403189    0.191411
  C     1.176738   -0.525178   -0.468672
  C     2.290127    0.004040    0.437033
  H    -2.529048   -0.126148    1.321311
  H    -3.290789    0.062957   -0.265213
  H    -2.719331    1.480692    0.605199
  H    -1.067015    0.846681   -1.208494
  H    -0.266314   -0.939307    1.126490
  H     1.176307    0.025433   -1.411337
  H     1.372678   -1.578285   -0.691824
  H     3.257240   -0.094817   -0.050041
  H     2.120848    1.054294    0.663999
  H     2.314869   -0.548985    1.372997

----------------------------
CARTESIAN COORDINATES (A.U.)
----------------------------
  NO LB    ZA    FRAG    MASS        X           Y           Z
   0 C   6.0000    1    12.011   -4.730975    0.820915    0.737217
   1 C   6.0000    1    12.011   -2.215838    0.580907   -0.520155
   2 C   6.0000    1    12.011   -0.302763   -0.761916    0.361715
   3 C   6.0000    1    12.011    2.223713   -0.992442   -0.885662
   4 C   6.0000    1    12.011    4.327714    0.007635    0.825873
   5 H   1.0000    1     1.008   -4.779209   -0.238386    2.496916
   6 H   1.0000    1     1.008   -6.218690    0.118971   -0.501179
   7 H   1.0000    1     1.008   -5.138791    2.798102    1.143660
   8 H   1.0000    1     1.008   -2.016366    1.599995   -2.283723
   9 H   1.0000    1     1.008   -0.503260   -1.775033    2.128757
  10 H   1.0000    1     1.008    2.222898    0.048061   -2.667040
  11 H   1.0000    1     1.008    2.593985   -2.982526   -1.307357
  12 H   1.0000    1     1.008    6.155292   -0.179178   -0.094564
  13 H   1.0000    1     1.008    4.007822    1.992327    1.254776
  14 H   1.0000    1     1.008    4.374469   -1.037432    2.594588

      -----------------------------------------------------------      
     |                   =====================                   |     
     |                           x T B                           |     
     |                   =====================                   |     
     |                         S. Grimme                         |     
     |          Mulliken Center for Theoretical Chemistry        |     
     |                    University of Bonn                     |     
      -----------------------------------------------------------      

   * xtb version 6.7.1 (edcfbbe) compiled by 'albert@albert-system' on 2024-07-22

   xtb is free software: you can redistribute it and/or modify it under
   the terms of the GNU Lesser General Public License as published by
   the Free Software Foundation, either version 3 of the License, or
   (at your option) any later version.
   
   xtb is distributed in the hope that it will be useful,
   but WITHOUT ANY WARRANTY; without even the implied warranty of
   MERCHANTABILITY or FITNESS FOR A PARTICULAR PURPOSE.  See the
   GNU Lesser General Public License for more details.
   
   Cite this work as:
   * C. Bannwarth, E. Caldeweyher, S. Ehlert, A. Hansen, P. Pracht,
     J. Seibert, S. Spicher, S. Grimme, WIREs Comput. Mol. Sci., 2020, 11,
     e01493. DOI: 10.1002/wcms.1493
   
   for GFN2-xTB:
   * C. Bannwarth, S. Ehlert and S. Grimme., J. Chem. Theory Comput., 2019,
     15, 1652-1671. DOI: 10.1021/acs.jctc.8b01176
   for GFN1-xTB:
   * S. Grimme, C. Bannwarth, P. Shushkov, J. Chem. Theory Comput., 2017,
     13, 1989-2009. DOI: 10.1021/acs.jctc.7b00118
   for GFN0-xTB:
   * P. Pracht, E. Caldeweyher, S. Ehlert, S. Grimme, ChemRxiv, 2019, preprint.
     DOI: 10.26434/chemrxiv.8326202.v1
   for GFN-FF:
   * S. Spicher and S. Grimme, Angew. Chem. Int. Ed., 2020, 59, 15665-15673.
     DOI: 10.1002/anie.202004239
   
   for ALPB and GBSA implicit solvation:
   * S. Ehlert, M. Stahn, S. Spicher, S. Grimme, J. Chem. Theory Comput.,
     2021, 17, 4250-4261. DOI: 10.1021/acs.jctc.1c00471
   
   for ddCOSMO and CPCM-X implicit solvation:
   * M. Stahn, S. Ehlert, S. Grimme, J. Phys. Chem. A,
     2023, XX, XXXX-XXXX. DOI: 10.1021/acs.jpca.3c04382
   
   for DFT-D4:
   * E. Caldeweyher, C. Bannwarth and S. Grimme, J. Chem. Phys., 2017,
     147, 034112. DOI: 10.1063/1.4993215
   * E. Caldeweyher, S. Ehlert, A. Hansen, H. Neugebauer, S. Spicher,
     C. Bannwarth and S. Grimme, J. Chem. Phys., 2019, 150, 154122.
     DOI: 10.1063/1.5090222
   * E. Caldeweyher, J.-M. Mewes, S. Ehlert and S. Grimme, Phys. Chem. Chem. Phys.
     2020, 22, 8499-8512. DOI: 10.1039/D0CP00502A
   
   for sTDA-xTB:
   * S. Grimme and C. Bannwarth, J. Chem. Phys., 2016, 145, 054103.
     DOI: 10.1063/1.4959605
   
   in the mass-spec context:
   * V. Asgeirsson, C. Bauer and S. Grimme, Chem. Sci., 2017, 8, 4879.
     DOI: 10.1039/c7sc00601b
   * J. Koopman and S. Grimme, ACS Omega 2019, 4, 12, 15120-15133.
     DOI: 10.1021/acsomega.9b02011
   
   for metadynamics refer to:
   * S. Grimme, J. Chem. Theory Comput., 2019, 155, 2847-2862
     DOI: 10.1021/acs.jctc.9b00143
   
   for SPH calculations refer to:
   * S. Spicher and S. Grimme, J. Chem. Theory Comput., 2021, 17, 1701-1714
     DOI: 10.1021/acs.jctc.0c01306
   
   for ONIOM refer to:
   * C. Plett, A. Katbashev, S. Ehlert, S. Grimme, M. Bursch,
     Phys. Chem. Chem. Phys., 2023, 25, 17860-17868. DOI: 10.1039/D3CP02178E
   
   for DIPRO refer to:
   * J. Kohn, N. Gildemeister, S. Grimme, D. Fazzi, A. Hansen,
     J. Chem. Phys., 2023, just accepted.
   
   for PTB refer to:
   * S. Grimme, M. Mueller, A. Hansen, J. Chem. Phys., 2023, 158, 124111.
     DOI: 10.1063/5.0137838
   
   with help from (in alphabetical order)
   P. Atkinson, C. Bannwarth, F. Bohle, G. Brandenburg, E. Caldeweyher
   M. Checinski, S. Dohm, S. Ehlert, S. Ehrlich, I. Gerasimov, C. Hölzer
   A. Katbashev, J. Kohn, J. Koopman, C. Lavigne, S. Lehtola, F. März, M. Müller,
   F. Musil, H. Neugebauer, J. Pisarek, C. Plett, P. Pracht, F. Pultar,
   J. Seibert, P. Shushkov, S. Spicher, M. Stahn, M. Steiner, T. Strunk,
   J. Stückrath, T. Rose, and J. Unsleber
   
 * started run on 2026/09/19 at 20:17:01.408     
   ID    Z sym.   atoms
    1    6 C      1-5
    2    1 H      6-15

           -------------------------------------------------
          |                Calculation Setup                |
           -------------------------------------------------

          program call               : /apps/eb/ORCA/6.1.1-gompi-2023b-avx2/bin/otool_xtb goat_XTB.xyz --grad -c 0 -u 0 -P 8 --namespace goat --input goat_XTB.input.tmp --acc 0.200000
          hostname                   : b3-21
          calculation namespace      : goat
          coordinate file            : goat_XTB.xyz
          omp threads                :                     8


           -------------------------------------------------
          |                 G F N 2 - x T B                 |
           -------------------------------------------------

        Reference                      10.1021/acs.jctc.8b01176
      * Hamiltonian:
        H0-scaling (s, p, d)           1.850000    2.230000    2.230000
        zeta-weighting                 0.500000
      * Dispersion:
        s8                             2.700000
        a1                             0.520000
        a2                             5.000000
        s9                             5.000000
      * Repulsion:
        kExp                           1.500000    1.000000
        rExp                           1.000000
      * Coulomb:
        alpha                          2.000000
        third order                    shell-resolved
        anisotropic                    true
        a3                             3.000000
        a5                             4.000000
        cn-shift                       1.200000
        cn-exp                         4.000000
        max-rad                        5.000000

q/qsh data taken from xtbrestart
CAMM data taken from xtbrestart

          ...................................................
          :                      SETUP                      :
          :.................................................:
          :  # basis functions                  30          :
          :  # atomic orbitals                  30          :
          :  # shells                           20          :
          :  # electrons                        30          :
          :  max. iterations                   250          :
          :  Hamiltonian                  GFN2-xTB          :
          :  restarted?                       true          :
          :  GBSA solvation                  false          :
          :  PC potential                    false          :
          :  electronic temp.          300.0000000     K    :
          :  accuracy                    0.2000000          :
          :  -> integral cutoff          0.3198970E+02      :
          :  -> integral neglect         0.2000000E-08      :
          :  -> SCF convergence          0.2000000E-06 Eh   :
          :  -> wf. convergence          0.2000000E-04 e    :
          :  Broyden damping             0.4000000          :
          :  net charge                          0          :
          :  unpaired electrons                  0          :
          ...................................................

 iter      E             dE          RMSdq      gap      omega  full diag
   1    -16.0468394 -0.160468E+02  0.281E-02    5.27       0.0  T
   2    -16.0468394 -0.243108E-07  0.168E-02    5.27       1.5  T
   3    -16.0468394 -0.714707E-08  0.621E-04    5.27      41.6  T
   4    -16.0468394 -0.520629E-09  0.358E-04    5.27      72.0  T
   5    -16.0468394  0.345359E-10  0.216E-04    5.27     119.7  T
   6    -16.0468394 -0.405883E-09  0.411E-05    5.27     628.0  T
   7    -16.0468394 -0.741451E-11  0.125E-05    5.27    2069.2  T

   *** convergence criteria satisfied after 7 iterations ***

         #    Occupation            Energy/Eh            Energy/eV
      -------------------------------------------------------------
         1        2.0000           -0.6189644             -16.8429
       ...           ...                  ...                  ...
         9        2.0000           -0.4763023             -12.9608
        10        2.0000           -0.4658443             -12.6763
        11        2.0000           -0.4564519             -12.4207
        12        2.0000           -0.4380036             -11.9187
        13        2.0000           -0.4275208             -11.6334
        14        2.0000           -0.4219435             -11.4817
        15        2.0000           -0.3825009             -10.4084 (HOMO)
        16                         -0.1889693              -5.1421 (LUMO)
        17                          0.0949510               2.5837
        18                          0.1207983               3.2871
        19                          0.1392755               3.7899
        20                          0.1673988               4.5552
       ...                                ...                  ...
        30                          0.6502446              17.6941
      -------------------------------------------------------------
                  HL-Gap            0.1935316 Eh            5.2663 eV
             Fermi-level           -0.2857351 Eh           -7.7752 eV

 SCC (total)                   0 d,  0 h,  0 min,  0.013 sec
 SCC setup                      ...        0 min,  0.001 sec (  6.453%)
 Dispersion                     ...        0 min,  0.000 sec (  1.586%)
 classical contributions        ...        0 min,  0.000 sec (  1.109%)
 integral evaluation            ...        0 min,  0.000 sec (  2.901%)
 iterations                     ...        0 min,  0.009 sec ( 73.196%)
 molecular gradient             ...        0 min,  0.002 sec ( 12.662%)
 printout                       ...        0 min,  0.000 sec (  1.903%)

         :::::::::::::::::::::::::::::::::::::::::::::::::::::
         ::                     SUMMARY                     ::
         :::::::::::::::::::::::::::::::::::::::::::::::::::::
         :: total energy             -15.776341181657 Eh    ::
         :: gradient norm              0.001411826405 Eh/a0 ::
         :: HOMO-LUMO gap              5.266263312537 eV    ::
         ::.................................................::
         :: SCC energy               -16.046835135349 Eh    ::
         :: -> isotropic ES            0.003112476912 Eh    ::
         :: -> anisotropic ES          0.004937108999 Eh    ::
         :: -> anisotropic XC          0.011412347072 Eh    ::
         :: -> dispersion             -0.007241643652 Eh    ::
         :: repulsion energy           0.270493953692 Eh    ::
         :: add. restraining           0.000000000000 Eh    ::
         :: total charge               0.000000000000 e     ::
         :::::::::::::::::::::::::::::::::::::::::::::::::::::


Property printout bound to 'properties.out'

           -------------------------------------------------
          | TOTAL ENERGY              -15.776341181657 Eh   |
          | GRADIENT NORM               0.001411826405 Eh/α |
          | HOMO-LUMO GAP               5.266263312537 eV   |
           -------------------------------------------------

------------------------------------------------------------------------
 * finished run on 2026/09/19 at 20:17:01.439     
------------------------------------------------------------------------
 total:
 * wall-time:     0 d,  0 h,  0 min,  0.031 sec
 *  cpu-time:     0 d,  0 h,  0 min,  0.203 sec
 * ratio c/w:     6.639 speedup
 SCF:
 * wall-time:     0 d,  0 h,  0 min,  0.013 sec
 *  cpu-time:     0 d,  0 h,  0 min,  0.089 sec
 * ratio c/w:     6.953 speedup


-------------------------   --------------------
FINAL SINGLE POINT ENERGY       -15.776341181660
-------------------------   --------------------


-------------
DIPOLE MOMENT
-------------
                                X             Y             Z
Total Dipole Moment    :     -0.02100       0.01200       0.01400
                        -----------------------------------------
Magnitude (a.u.)       :      0.02795
Magnitude (Debye)      :      0.07103


------------------
CARTESIAN GRADIENT
------------------

   1   C   :   -0.000535652   -0.000001948   -0.000091190
   2   C   :    0.000100528    0.000009142   -0.000107288
   3   C   :    0.000303095   -0.000026755   -0.000031494
   4   C   :   -0.000342654   -0.000041424   -0.000417299
   5   C   :    0.000795193   -0.000129577    0.000543340
   6   H   :   -0.000029907    0.000140842   -0.000022244
   7   H   :    0.000147905    0.000004689    0.000167332
   8   H   :    0.000080273   -0.000159629    0.000100749
   9   H   :    0.000088874   -0.000058253    0.000120106
  10   H   :   -0.000237619    0.000111857   -0.000036530
  11   H   :    0.000022201   -0.000073040   -0.000014493
  12   H   :    0.000006654    0.000062310    0.000013514
  13   H   :   -0.000154973    0.000040433   -0.000039597
  14   H   :   -0.000159477   -0.000064604   -0.000021294
  15   H   :   -0.000084441    0.000185956   -0.000163612

Difference to translation invariance:
           :    0.0000000000   -0.0000000000   -0.0000000000

Difference to rotation invariance:
           :   -0.0000000058    0.0000000079   -0.0000000042

Norm of the Cartesian gradient     ...    0.0014118264
RMS gradient                       ...    0.0002104627
MAX gradient                       ...    0.0007951926
------------------------------------------------------------------------------
                         ORCA GEOMETRY RELAXATION STEP
------------------------------------------------------------------------------

Reading the OPT-File                    .... done
Getting information on internals        .... done
Copying old internal coords+grads       .... done
Making the new internal coordinates     .... (2022 redundants) done
Validating the new internal coordinates .... (2022 redundants) done
Calculating the B-matrix                .... done
Calculating the G,G- and P matrices     .... done
Transforming gradient to internals      .... done
Projecting the internal gradient        .... done
Number of atoms                         ....  15
Number of internal coordinates          ....  58
Current Energy                          ....   -15.776341182 Eh
Current gradient norm                   ....     0.001411826 Eh/bohr
Maximum allowed component of the step   ....  0.300
Current trust radius                    ....  0.700
Updating the Hessian (BFGS)             .... done
Forming the augmented Hessian           .... done
Diagonalizing the augmented Hessian     .... done
Last element of RFO vector              ....  0.999834833
Lowest eigenvalues of augmented Hessian:
 -0.000004168  0.001940439  0.003300241  0.015507070  0.027983658
Length of the computed step             ....  0.018177356
The final length of the internal step   ....  0.018177356
Converting the step to Cartesian space:
 Initial RMS(Int)=    0.0023868038
Transforming coordinates:
 Iter   0:  RMS(Cart)=    0.0032952154 RMS(Int)=    0.0023868476
done
Storing new coordinates                 .... done
The predicted energy change is          ....    -0.000002085
Previously predicted energy change      ....    -0.000008610
Actually observed energy change         ....    -0.000010970
Ratio of predicted to observed change   ....     1.274088405
New trust radius                        ....     0.700000000

                                .--------------------.
          ----------------------|Geometry convergence|-------------------------
          Item                value                   Tolerance       Converged
          ---------------------------------------------------------------------
          Energy change      -0.0000109699            0.0000050000      NO
          RMS gradient        0.0001270801            0.0001000000      NO
          MAX gradient        0.0004883647            0.0003000000      NO
          RMS step            0.0023868038            0.0020000000      NO
          MAX step            0.0063826131            0.0040000000      NO
          -------------------------------------------------------------------------
          ........................................................
          Max(Bonds)      0.0008      Max(Angles)    0.09
          Max(Dihed)        0.37      Max(Improp)    0.00
          ---------------------------------------------------------------------

    ---------------------------------------------------------------------------
                         Redundant Internal Coordinates
                            (Angstroem and degrees)

        Definition                    Value    dE/dq     Step     New-Value
    ----------------------------------------------------------------------------
     1. B(C   1,C   0)                1.4934  0.000368 -0.0004    1.4930   
     2. B(C   2,C   1)                1.3220  0.000019 -0.0000    1.3219   
     3. B(C   3,C   2)                1.4960  0.000119 -0.0001    1.4959   
     4. B(C   4,C   3)                1.5297  0.000488 -0.0008    1.5289   
     5. B(H   5,C   0)                1.0872 -0.000091  0.0001    1.0873   
     6. B(H   6,C   0)                1.0896 -0.000209  0.0003    1.0899   
     7. B(H   7,C   0)                1.0897 -0.000149  0.0002    1.0900   
     8. B(H   8,C   1)                1.0830 -0.000124  0.0002    1.0832   
     9. B(H   9,C   2)                1.0831 -0.000064  0.0001    1.0832   
    10. B(H  10,C   3)                1.0917 -0.000024  0.0000    1.0917   
    11. B(H  11,C   3)                1.0942 -0.000062  0.0001    1.0943   
    12. B(H  12,C   4)                1.0873 -0.000124  0.0003    1.0876   
    13. B(H  13,C   4)                1.0878 -0.000042  0.0000    1.0878   
    14. B(H  14,C   4)                1.0874 -0.000237  0.0003    1.0878   
    15. A(H   6,C   0,H   7)          107.63  0.000081   -0.08    107.56   
    16. A(C   1,C   0,H   5)          111.02  0.000044   -0.02    110.99   
    17. A(C   1,C   0,H   6)          110.30  0.000056   -0.00    110.30   
    18. A(C   1,C   0,H   7)          110.25 -0.000008    0.02    110.26   
    19. A(H   5,C   0,H   6)          108.81 -0.000036    0.02    108.83   
    20. A(H   5,C   0,H   7)          108.74 -0.000139    0.07    108.81   
    21. A(C   2,C   1,H   8)          119.82 -0.000100    0.02    119.83   
    22. A(C   0,C   1,H   8)          115.37  0.000090   -0.03    115.33   
    23. A(C   0,C   1,C   2)          124.81  0.000010    0.01    124.83   
    24. A(C   3,C   2,H   9)          115.35  0.000195   -0.04    115.31   
    25. A(C   1,C   2,H   9)          119.72 -0.000332    0.06    119.78   
    26. A(C   1,C   2,C   3)          124.92  0.000137   -0.02    124.91   
    27. A(C   4,C   3,H  10)          109.70  0.000027    0.01    109.71   
    28. A(C   2,C   3,H  10)          109.85  0.000026   -0.03    109.82   
    29. A(C   2,C   3,C   4)          111.16 -0.000019    0.00    111.17   
    30. A(H  10,C   3,H  11)          108.02 -0.000024    0.01    108.03   
    31. A(C   4,C   3,H  11)          108.87 -0.000029   -0.00    108.87   
    32. A(C   2,C   3,H  11)          109.18  0.000019    0.01    109.19   
    33. A(H  13,C   4,H  14)          108.36 -0.000071    0.02    108.38   
    34. A(H  12,C   4,H  14)          108.61  0.000192   -0.09    108.52   
    35. A(C   3,C   4,H  14)          110.50  0.000040    0.02    110.52   
    36. A(H  12,C   4,H  13)          108.64  0.000125   -0.03    108.62   
    37. A(C   3,C   4,H  13)          110.14 -0.000271    0.07    110.21   
    38. A(C   3,C   4,H  12)          110.53 -0.000009    0.00    110.53   
    39. D(C   2,C   1,C   0,H   5)      0.75  0.000056   -0.36      0.39   
    40. D(C   2,C   1,C   0,H   6)   -119.94  0.000035   -0.37   -120.30   
    41. D(H   8,C   1,C   0,H   6)     59.76  0.000019   -0.36     59.40   
    42. D(C   2,C   1,C   0,H   7)    121.33 -0.000095   -0.28    121.05   
    43. D(H   8,C   1,C   0,H   5)   -179.55  0.000040   -0.35   -179.90   
    44. D(C   3,C   2,C   1,C   0)   -179.60 -0.000038    0.06   -179.54   
    45. D(C   3,C   2,C   1,H   8)      0.71 -0.000023    0.05      0.77   
    46. D(H   9,C   2,C   1,H   8)    179.80  0.000004    0.01    179.81   
    47. D(H   9,C   2,C   1,C   0)     -0.51 -0.000011    0.02     -0.49   
    48. D(H  11,C   3,C   2,C   1)   -120.62 -0.000005   -0.01   -120.63   
    49. D(H  10,C   3,C   2,H   9)    178.54 -0.000029    0.03    178.57   
    50. D(H  10,C   3,C   2,C   1)     -2.34 -0.000007   -0.02     -2.35   
    51. D(C   4,C   3,C   2,H   9)    -59.86  0.000010    0.02    -59.84   
    52. D(C   4,C   3,C   2,C   1)    119.26  0.000031   -0.02    119.24   
    53. D(H  12,C   4,C   3,C   2)    179.67  0.000011   -0.26    179.41   
    54. D(H  13,C   4,C   3,H  11)    179.43 -0.000006   -0.26    179.17   
    55. D(H  13,C   4,C   3,H  10)     61.42  0.000024   -0.27     61.14   
    56. D(H  13,C   4,C   3,C   2)    -60.27 -0.000013   -0.25    -60.52   
    57. D(H  12,C   4,C   3,H  11)     59.37  0.000019   -0.28     59.09   
    58. D(H  12,C   4,C   3,H  10)    -58.64  0.000049   -0.29    -58.93   
    ----------------------------------------------------------------------------

Geometry step timings:
Preparation and reading OPT file:      0.000 s ( 1.134 %)
Internal coordinates            :      0.000 s ( 1.063 %)
B/P matrices and projection     :      0.000 s (32.672 %)
Hessian update/contruction      :      0.000 s (13.607 %)
Making the step                 :      0.000 s (25.301 %)
Converting the step to Cartesian:      0.000 s ( 2.835 %)
Storing new data                :      0.000 s ( 1.417 %)
Checking convergence            :      0.000 s ( 1.984 %)
Final printing                  :      0.000 s (19.844 %)
Total time                      :      0.001 s

Time for energy+gradient        :      0.039 s
Time for complete geometry iter :      0.041 s

         *************************************************************
         *                GEOMETRY OPTIMIZATION CYCLE  12            *
         *************************************************************
---------------------------------
CARTESIAN COORDINATES (ANGSTROEM)
---------------------------------
  C    -2.503162    0.434182    0.390275
  C    -1.172750    0.306426   -0.275038
  C    -0.160237   -0.403732    0.191806
  C     1.176659   -0.525023   -0.468321
  C     2.289287    0.004906    0.436586
  H    -2.530213   -0.130826    1.318825
  H    -3.291490    0.068069   -0.267310
  H    -2.716906    1.480348    0.609033
  H    -1.067861    0.845214   -1.208873
  H    -0.265034   -0.939682    1.127238
  H     1.175319    0.025545   -1.411052
  H     1.373412   -1.578111   -0.691397
  H     3.257141   -0.097724   -0.048827
  H     2.122842    1.056301    0.660489
  H     2.312993   -0.545893    1.374290

----------------------------
CARTESIAN COORDINATES (A.U.)
----------------------------
  NO LB    ZA    FRAG    MASS        X           Y           Z
   0 C   6.0000    1    12.011   -4.730291    0.820486    0.737512
   1 C   6.0000    1    12.011   -2.216176    0.579061   -0.519747
   2 C   6.0000    1    12.011   -0.302805   -0.762944    0.362461
   3 C   6.0000    1    12.011    2.223563   -0.992150   -0.884999
   4 C   6.0000    1    12.011    4.326125    0.009270    0.825028
   5 H   1.0000    1     1.008   -4.781409   -0.247225    2.492218
   6 H   1.0000    1     1.008   -6.220015    0.128632   -0.505142
   7 H   1.0000    1     1.008   -5.134208    2.797452    1.150905
   8 H   1.0000    1     1.008   -2.017965    1.597224   -2.284439
   9 H   1.0000    1     1.008   -0.500841   -1.775742    2.130171
  10 H   1.0000    1     1.008    2.221032    0.048272   -2.666502
  11 H   1.0000    1     1.008    2.595373   -2.982197   -1.306552
  12 H   1.0000    1     1.008    6.155105   -0.184672   -0.092270
  13 H   1.0000    1     1.008    4.011589    1.996119    1.248143
  14 H   1.0000    1     1.008    4.370924   -1.031588    2.597033

      -----------------------------------------------------------      
     |                   =====================                   |     
     |                           x T B                           |     
     |                   =====================                   |     
     |                         S. Grimme                         |     
     |          Mulliken Center for Theoretical Chemistry        |     
     |                    University of Bonn                     |     
      -----------------------------------------------------------      

   * xtb version 6.7.1 (edcfbbe) compiled by 'albert@albert-system' on 2024-07-22

   xtb is free software: you can redistribute it and/or modify it under
   the terms of the GNU Lesser General Public License as published by
   the Free Software Foundation, either version 3 of the License, or
   (at your option) any later version.
   
   xtb is distributed in the hope that it will be useful,
   but WITHOUT ANY WARRANTY; without even the implied warranty of
   MERCHANTABILITY or FITNESS FOR A PARTICULAR PURPOSE.  See the
   GNU Lesser General Public License for more details.
   
   Cite this work as:
   * C. Bannwarth, E. Caldeweyher, S. Ehlert, A. Hansen, P. Pracht,
     J. Seibert, S. Spicher, S. Grimme, WIREs Comput. Mol. Sci., 2020, 11,
     e01493. DOI: 10.1002/wcms.1493
   
   for GFN2-xTB:
   * C. Bannwarth, S. Ehlert and S. Grimme., J. Chem. Theory Comput., 2019,
     15, 1652-1671. DOI: 10.1021/acs.jctc.8b01176
   for GFN1-xTB:
   * S. Grimme, C. Bannwarth, P. Shushkov, J. Chem. Theory Comput., 2017,
     13, 1989-2009. DOI: 10.1021/acs.jctc.7b00118
   for GFN0-xTB:
   * P. Pracht, E. Caldeweyher, S. Ehlert, S. Grimme, ChemRxiv, 2019, preprint.
     DOI: 10.26434/chemrxiv.8326202.v1
   for GFN-FF:
   * S. Spicher and S. Grimme, Angew. Chem. Int. Ed., 2020, 59, 15665-15673.
     DOI: 10.1002/anie.202004239
   
   for ALPB and GBSA implicit solvation:
   * S. Ehlert, M. Stahn, S. Spicher, S. Grimme, J. Chem. Theory Comput.,
     2021, 17, 4250-4261. DOI: 10.1021/acs.jctc.1c00471
   
   for ddCOSMO and CPCM-X implicit solvation:
   * M. Stahn, S. Ehlert, S. Grimme, J. Phys. Chem. A,
     2023, XX, XXXX-XXXX. DOI: 10.1021/acs.jpca.3c04382
   
   for DFT-D4:
   * E. Caldeweyher, C. Bannwarth and S. Grimme, J. Chem. Phys., 2017,
     147, 034112. DOI: 10.1063/1.4993215
   * E. Caldeweyher, S. Ehlert, A. Hansen, H. Neugebauer, S. Spicher,
     C. Bannwarth and S. Grimme, J. Chem. Phys., 2019, 150, 154122.
     DOI: 10.1063/1.5090222
   * E. Caldeweyher, J.-M. Mewes, S. Ehlert and S. Grimme, Phys. Chem. Chem. Phys.
     2020, 22, 8499-8512. DOI: 10.1039/D0CP00502A
   
   for sTDA-xTB:
   * S. Grimme and C. Bannwarth, J. Chem. Phys., 2016, 145, 054103.
     DOI: 10.1063/1.4959605
   
   in the mass-spec context:
   * V. Asgeirsson, C. Bauer and S. Grimme, Chem. Sci., 2017, 8, 4879.
     DOI: 10.1039/c7sc00601b
   * J. Koopman and S. Grimme, ACS Omega 2019, 4, 12, 15120-15133.
     DOI: 10.1021/acsomega.9b02011
   
   for metadynamics refer to:
   * S. Grimme, J. Chem. Theory Comput., 2019, 155, 2847-2862
     DOI: 10.1021/acs.jctc.9b00143
   
   for SPH calculations refer to:
   * S. Spicher and S. Grimme, J. Chem. Theory Comput., 2021, 17, 1701-1714
     DOI: 10.1021/acs.jctc.0c01306
   
   for ONIOM refer to:
   * C. Plett, A. Katbashev, S. Ehlert, S. Grimme, M. Bursch,
     Phys. Chem. Chem. Phys., 2023, 25, 17860-17868. DOI: 10.1039/D3CP02178E
   
   for DIPRO refer to:
   * J. Kohn, N. Gildemeister, S. Grimme, D. Fazzi, A. Hansen,
     J. Chem. Phys., 2023, just accepted.
   
   for PTB refer to:
   * S. Grimme, M. Mueller, A. Hansen, J. Chem. Phys., 2023, 158, 124111.
     DOI: 10.1063/5.0137838
   
   with help from (in alphabetical order)
   P. Atkinson, C. Bannwarth, F. Bohle, G. Brandenburg, E. Caldeweyher
   M. Checinski, S. Dohm, S. Ehlert, S. Ehrlich, I. Gerasimov, C. Hölzer
   A. Katbashev, J. Kohn, J. Koopman, C. Lavigne, S. Lehtola, F. März, M. Müller,
   F. Musil, H. Neugebauer, J. Pisarek, C. Plett, P. Pracht, F. Pultar,
   J. Seibert, P. Shushkov, S. Spicher, M. Stahn, M. Steiner, T. Strunk,
   J. Stückrath, T. Rose, and J. Unsleber
   
 * started run on 2026/09/19 at 20:17:01.449     
   ID    Z sym.   atoms
    1    6 C      1-5
    2    1 H      6-15

           -------------------------------------------------
          |                Calculation Setup                |
           -------------------------------------------------

          program call               : /apps/eb/ORCA/6.1.1-gompi-2023b-avx2/bin/otool_xtb goat_XTB.xyz --grad -c 0 -u 0 -P 8 --namespace goat --input goat_XTB.input.tmp --acc 0.200000
          hostname                   : b3-21
          calculation namespace      : goat
          coordinate file            : goat_XTB.xyz
          omp threads                :                     8


           -------------------------------------------------
          |                 G F N 2 - x T B                 |
           -------------------------------------------------

        Reference                      10.1021/acs.jctc.8b01176
      * Hamiltonian:
        H0-scaling (s, p, d)           1.850000    2.230000    2.230000
        zeta-weighting                 0.500000
      * Dispersion:
        s8                             2.700000
        a1                             0.520000
        a2                             5.000000
        s9                             5.000000
      * Repulsion:
        kExp                           1.500000    1.000000
        rExp                           1.000000
      * Coulomb:
        alpha                          2.000000
        third order                    shell-resolved
        anisotropic                    true
        a3                             3.000000
        a5                             4.000000
        cn-shift                       1.200000
        cn-exp                         4.000000
        max-rad                        5.000000

q/qsh data taken from xtbrestart
CAMM data taken from xtbrestart

          ...................................................
          :                      SETUP                      :
          :.................................................:
          :  # basis functions                  30          :
          :  # atomic orbitals                  30          :
          :  # shells                           20          :
          :  # electrons                        30          :
          :  max. iterations                   250          :
          :  Hamiltonian                  GFN2-xTB          :
          :  restarted?                       true          :
          :  GBSA solvation                  false          :
          :  PC potential                    false          :
          :  electronic temp.          300.0000000     K    :
          :  accuracy                    0.2000000          :
          :  -> integral cutoff          0.3198970E+02      :
          :  -> integral neglect         0.2000000E-08      :
          :  -> SCF convergence          0.2000000E-06 Eh   :
          :  -> wf. convergence          0.2000000E-04 e    :
          :  Broyden damping             0.4000000          :
          :  net charge                          0          :
          :  unpaired electrons                  0          :
          ...................................................

 iter      E             dE          RMSdq      gap      omega  full diag
   1    -16.0467661 -0.160468E+02  0.834E-03    5.27       0.0  T
   2    -16.0467661 -0.942256E-08  0.498E-03    5.27       5.2  T
   3    -16.0467661  0.296436E-07  0.162E-03    5.27      15.9  T
   4    -16.0467661 -0.329342E-07  0.244E-04    5.27     105.9  T
   5    -16.0467661 -0.536389E-09  0.768E-05    5.27     336.4  T
   6    -16.0467661 -0.169464E-11  0.269E-05    5.27     960.5  T

   *** convergence criteria satisfied after 6 iterations ***

         #    Occupation            Energy/Eh            Energy/eV
      -------------------------------------------------------------
         1        2.0000           -0.6189986             -16.8438
       ...           ...                  ...                  ...
         9        2.0000           -0.4763089             -12.9610
        10        2.0000           -0.4658390             -12.6761
        11        2.0000           -0.4564902             -12.4217
        12        2.0000           -0.4379658             -11.9177
        13        2.0000           -0.4275304             -11.6337
        14        2.0000           -0.4219087             -11.4807
        15        2.0000           -0.3824842             -10.4079 (HOMO)
        16                         -0.1889504              -5.1416 (LUMO)
        17                          0.0952508               2.5919
        18                          0.1206011               3.2817
        19                          0.1398319               3.8050
        20                          0.1672874               4.5521
       ...                                ...                  ...
        30                          0.6505940              17.7036
      -------------------------------------------------------------
                  HL-Gap            0.1935338 Eh            5.2663 eV
             Fermi-level           -0.2857173 Eh           -7.7748 eV

 SCC (total)                   0 d,  0 h,  0 min,  0.012 sec
 SCC setup                      ...        0 min,  0.000 sec (  1.058%)
 Dispersion                     ...        0 min,  0.000 sec (  0.426%)
 classical contributions        ...        0 min,  0.000 sec (  0.136%)
 integral evaluation            ...        0 min,  0.000 sec (  2.150%)
 iterations                     ...        0 min,  0.011 sec ( 85.521%)
 molecular gradient             ...        0 min,  0.001 sec (  9.346%)
 printout                       ...        0 min,  0.000 sec (  1.188%)

         :::::::::::::::::::::::::::::::::::::::::::::::::::::
         ::                     SUMMARY                     ::
         :::::::::::::::::::::::::::::::::::::::::::::::::::::
         :: total energy             -15.776343729017 Eh    ::
         :: gradient norm              0.000548142922 Eh/a0 ::
         :: HOMO-LUMO gap              5.266323477155 eV    ::
         ::.................................................::
         :: SCC energy               -16.046761776131 Eh    ::
         :: -> isotropic ES            0.003107939467 Eh    ::
         :: -> anisotropic ES          0.004939180843 Eh    ::
         :: -> anisotropic XC          0.011415548014 Eh    ::
         :: -> dispersion             -0.007242342585 Eh    ::
         :: repulsion energy           0.270418047114 Eh    ::
         :: add. restraining           0.000000000000 Eh    ::
         :: total charge              -0.000000000000 e     ::
         :::::::::::::::::::::::::::::::::::::::::::::::::::::


Property printout bound to 'properties.out'

           -------------------------------------------------
          | TOTAL ENERGY              -15.776343729017 Eh   |
          | GRADIENT NORM               0.000548142922 Eh/α |
          | HOMO-LUMO GAP               5.266323477155 eV   |
           -------------------------------------------------

------------------------------------------------------------------------
 * finished run on 2026/09/19 at 20:17:01.468     
------------------------------------------------------------------------
 total:
 * wall-time:     0 d,  0 h,  0 min,  0.019 sec
 *  cpu-time:     0 d,  0 h,  0 min,  0.124 sec
 * ratio c/w:     6.598 speedup
 SCF:
 * wall-time:     0 d,  0 h,  0 min,  0.013 sec
 *  cpu-time:     0 d,  0 h,  0 min,  0.088 sec
 * ratio c/w:     7.020 speedup


-------------------------   --------------------
FINAL SINGLE POINT ENERGY       -15.776343729020
-------------------------   --------------------


-------------
DIPOLE MOMENT
-------------
                                X             Y             Z
Total Dipole Moment    :     -0.02100       0.01200       0.01400
                        -----------------------------------------
Magnitude (a.u.)       :      0.02795
Magnitude (Debye)      :      0.07103


------------------
CARTESIAN GRADIENT
------------------

   1   C   :   -0.000152140    0.000022842   -0.000040645
   2   C   :    0.000005333   -0.000079057    0.000085047
   3   C   :    0.000241523    0.000011704   -0.000092153
   4   C   :   -0.000140225    0.000063937   -0.000153095
   5   C   :    0.000210860   -0.000071400    0.000224891
   6   H   :    0.000041602    0.000011683   -0.000005683
   7   H   :    0.000018410    0.000029357    0.000036009
   8   H   :   -0.000005050   -0.000033162    0.000008868
   9   H   :    0.000016484    0.000000715    0.000013012
  10   H   :   -0.000141008    0.000047679    0.000012821
  11   H   :   -0.000015945   -0.000034974    0.000004958
  12   H   :    0.000039626    0.000010346    0.000007598
  13   H   :   -0.000044261   -0.000022944   -0.000030189
  14   H   :   -0.000083626   -0.000008109   -0.000032354
  15   H   :    0.000008417    0.000051384   -0.000039084

Difference to translation invariance:
           :   -0.0000000000    0.0000000000   -0.0000000000

Difference to rotation invariance:
           :    0.0000000166    0.0000000240    0.0000000167

Norm of the Cartesian gradient     ...    0.0005481429
RMS gradient                       ...    0.0000817123
MAX gradient                       ...    0.0002415228
------------------------------------------------------------------------------
                         ORCA GEOMETRY RELAXATION STEP
------------------------------------------------------------------------------

Reading the OPT-File                    .... done
Getting information on internals        .... done
Copying old internal coords+grads       .... done
Making the new internal coordinates     .... (2022 redundants) done
Validating the new internal coordinates .... (2022 redundants) done
Calculating the B-matrix                .... done
Calculating the G,G- and P matrices     .... done
Transforming gradient to internals      .... done
Projecting the internal gradient        .... done
Number of atoms                         ....  15
Number of internal coordinates          ....  58
Current Energy                          ....   -15.776343729 Eh
Current gradient norm                   ....     0.000548143 Eh/bohr
Maximum allowed component of the step   ....  0.300
Current trust radius                    ....  0.700
Updating the Hessian (BFGS)             .... done
Forming the augmented Hessian           .... done
Diagonalizing the augmented Hessian     .... done
Last element of RFO vector              ....  0.999996063
Lowest eigenvalues of augmented Hessian:
 -0.000000645  0.002029274  0.003347631  0.015503312  0.027534116
Length of the computed step             ....  0.002806127
The final length of the internal step   ....  0.002806127
Converting the step to Cartesian space:
 Initial RMS(Int)=    0.0003684625
Transforming coordinates:
 Iter   0:  RMS(Cart)=    0.0004550284 RMS(Int)=    0.0003684583
done
Storing new coordinates                 .... done
The predicted energy change is          ....    -0.000000322
Previously predicted energy change      ....    -0.000002085
Actually observed energy change         ....    -0.000002547
Ratio of predicted to observed change   ....     1.221807001
New trust radius                        ....     0.700000000

                                .--------------------.
          ----------------------|Geometry convergence|-------------------------
          Item                value                   Tolerance       Converged
          ---------------------------------------------------------------------
          Energy change      -0.0000025474            0.0000050000      YES
          RMS gradient        0.0000486654            0.0001000000      YES
          MAX gradient        0.0001914141            0.0003000000      YES
          RMS step            0.0003684625            0.0020000000      YES
          MAX step            0.0010003564            0.0040000000      YES
          -------------------------------------------------------------------------
          ........................................................
          Max(Bonds)      0.0003      Max(Angles)    0.05
          Max(Dihed)        0.06      Max(Improp)    0.00
          ---------------------------------------------------------------------

                    ***********************HURRAY********************
                    ***        THE OPTIMIZATION HAS CONVERGED     ***
                    *************************************************


    ---------------------------------------------------------------------------
                         Redundant Internal Coordinates

                          --- Optimized Parameters ---  
                            (Angstroem and degrees)

        Definition                    OldVal   dE/dq     Step     FinalVal
    ----------------------------------------------------------------------------
     1. B(C   1,C   0)                1.4930  0.000089 -0.0002    1.4928   
     2. B(C   2,C   1)                1.3219 -0.000002 -0.0000    1.3219   
     3. B(C   3,C   2)                1.4959 -0.000014  0.0000    1.4959   
     4. B(C   4,C   3)                1.5289  0.000122 -0.0003    1.5286   
     5. B(H   5,C   0)                1.0873 -0.000012  0.0000    1.0873   
     6. B(H   6,C   0)                1.0899 -0.000045  0.0001    1.0900   
     7. B(H   7,C   0)                1.0900 -0.000029  0.0001    1.0900   
     8. B(H   8,C   1)                1.0832 -0.000009  0.0000    1.0832   
     9. B(H   9,C   2)                1.0832  0.000001  0.0000    1.0832   
    10. B(H  10,C   3)                1.0917 -0.000022  0.0000    1.0918   
    11. B(H  11,C   3)                1.0943 -0.000004  0.0000    1.0943   
    12. B(H  12,C   4)                1.0876 -0.000024  0.0001    1.0877   
    13. B(H  13,C   4)                1.0878 -0.000002  0.0000    1.0878   
    14. B(H  14,C   4)                1.0878 -0.000060  0.0001    1.0879   
    15. A(H   6,C   0,H   7)          107.56 -0.000013   -0.01    107.54   
    16. A(C   1,C   0,H   5)          110.99 -0.000068    0.01    111.01   
    17. A(C   1,C   0,H   6)          110.30  0.000042   -0.01    110.29   
    18. A(C   1,C   0,H   7)          110.26  0.000025    0.00    110.26   
    19. A(H   5,C   0,H   6)          108.83  0.000019   -0.01    108.82   
    20. A(H   5,C   0,H   7)          108.81 -0.000005    0.02    108.83   
    21. A(C   2,C   1,H   8)          119.84 -0.000029    0.01    119.84   
    22. A(C   0,C   1,H   8)          115.33 -0.000000   -0.01    115.33   
    23. A(C   0,C   1,C   2)          124.83  0.000029   -0.00    124.83   
    24. A(C   3,C   2,H   9)          115.31  0.000114   -0.03    115.27   
    25. A(C   1,C   2,H   9)          119.78 -0.000191    0.05    119.83   
    26. A(C   1,C   2,C   3)          124.91  0.000077   -0.02    124.89   
    27. A(C   4,C   3,H  10)          109.71  0.000039   -0.01    109.70   
    28. A(C   2,C   3,H  10)          109.82 -0.000006   -0.01    109.81   
    29. A(C   2,C   3,C   4)          111.17 -0.000022    0.00    111.17   
    30. A(H  10,C   3,H  11)          108.03 -0.000005    0.00    108.03   
    31. A(C   4,C   3,H  11)          108.87 -0.000044    0.01    108.88   
    32. A(C   2,C   3,H  11)          109.19  0.000039   -0.01    109.18   
    33. A(H  13,C   4,H  14)          108.38  0.000004   -0.00    108.38   
    34. A(H  12,C   4,H  14)          108.52  0.000035   -0.03    108.49   
    35. A(C   3,C   4,H  14)          110.52  0.000068   -0.01    110.51   
    36. A(H  12,C   4,H  13)          108.62  0.000082   -0.02    108.60   
    37. A(C   3,C   4,H  13)          110.21 -0.000136    0.04    110.25   
    38. A(C   3,C   4,H  12)          110.53 -0.000049    0.01    110.55   
    39. D(C   2,C   1,C   0,H   5)      0.39  0.000010    0.03      0.42   
    40. D(C   2,C   1,C   0,H   6)   -120.30  0.000002    0.03   -120.27   
    41. D(H   8,C   1,C   0,H   6)     59.40  0.000002    0.01     59.42   
    42. D(C   2,C   1,C   0,H   7)    121.05 -0.000024    0.06    121.11   
    43. D(H   8,C   1,C   0,H   5)   -179.90  0.000010    0.00   -179.90   
    44. D(C   3,C   2,C   1,C   0)   -179.54 -0.000011    0.01   -179.53   
    45. D(C   3,C   2,C   1,H   8)      0.77 -0.000012    0.03      0.80   
    46. D(H   9,C   2,C   1,H   8)    179.81  0.000001    0.01    179.82   
    47. D(H   9,C   2,C   1,C   0)     -0.49  0.000002   -0.02     -0.51   
    48. D(H  11,C   3,C   2,C   1)   -120.63 -0.000018   -0.01   -120.64   
    49. D(H  10,C   3,C   2,H   9)    178.57 -0.000015    0.01    178.58   
    50. D(H  10,C   3,C   2,C   1)     -2.35 -0.000005   -0.01     -2.36   
    51. D(C   4,C   3,C   2,H   9)    -59.84  0.000015    0.00    -59.84   
    52. D(C   4,C   3,C   2,C   1)    119.24  0.000025   -0.02    119.22   
    53. D(H  12,C   4,C   3,C   2)    179.41  0.000011   -0.04    179.37   
    54. D(H  13,C   4,C   3,H  11)    179.17 -0.000013   -0.03    179.14   
    55. D(H  13,C   4,C   3,H  10)     61.14 -0.000003   -0.04     61.11   
    56. D(H  13,C   4,C   3,C   2)    -60.52 -0.000007   -0.02    -60.54   
    57. D(H  12,C   4,C   3,H  11)     59.09  0.000005   -0.04     59.05   
    58. D(H  12,C   4,C   3,H  10)    -58.93  0.000015   -0.05    -58.98   
    ----------------------------------------------------------------------------

Geometry step timings:
Preparation and reading OPT file:      0.000 s ( 0.997 %)
Internal coordinates            :      0.000 s ( 1.140 %)
B/P matrices and projection     :      0.000 s (32.692 %)
Hessian update/contruction      :      0.000 s (13.462 %)
Making the step                 :      0.000 s (25.142 %)
Converting the step to Cartesian:      0.000 s ( 2.778 %)
Storing new data                :      0.000 s ( 1.353 %)
Checking convergence            :      0.000 s ( 2.493 %)
Final printing                  :      0.000 s (19.801 %)
Total time                      :      0.001 s
                 *******************************************************
                 *** FINAL ENERGY EVALUATION AT THE STATIONARY POINT ***
                 ***               (AFTER   12 CYCLES)               ***
                 *******************************************************
---------------------------------
CARTESIAN COORDINATES (ANGSTROEM)
---------------------------------
  C    -2.503000    0.434248    0.390320
  C    -1.172697    0.306449   -0.274828
  C    -0.160361   -0.403967    0.191975
  C     1.176556   -0.524950   -0.468236
  C     2.288982    0.004993    0.436398
  H    -2.530261   -0.130537    1.319023
  H    -3.291198    0.067742   -0.267406
  H    -2.717092    1.480548    0.608394
  H    -1.067870    0.845172   -1.208749
  H    -0.264412   -0.940189    1.127338
  H     1.175030    0.025934   -1.410834
  H     1.373297   -1.577994   -0.691628
  H     3.257055   -0.097943   -0.048697
  H     2.123295    1.056471    0.660486
  H     2.312677   -0.545978    1.374169

----------------------------
CARTESIAN COORDINATES (A.U.)
----------------------------
  NO LB    ZA    FRAG    MASS        X           Y           Z
   0 C   6.0000    1    12.011   -4.729984    0.820610    0.737598
   1 C   6.0000    1    12.011   -2.216077    0.579105   -0.519350
   2 C   6.0000    1    12.011   -0.303039   -0.763387    0.362780
   3 C   6.0000    1    12.011    2.223369   -0.992011   -0.884837
   4 C   6.0000    1    12.011    4.325550    0.009435    0.824672
   5 H   1.0000    1     1.008   -4.781501   -0.246679    2.492592
   6 H   1.0000    1     1.008   -6.219463    0.128014   -0.505324
   7 H   1.0000    1     1.008   -5.134559    2.797831    1.149697
   8 H   1.0000    1     1.008   -2.017982    1.597144   -2.284205
   9 H   1.0000    1     1.008   -0.499667   -1.776699    2.130359
  10 H   1.0000    1     1.008    2.220484    0.049009   -2.666090
  11 H   1.0000    1     1.008    2.595155   -2.981976   -1.306987
  12 H   1.0000    1     1.008    6.154941   -0.185085   -0.092025
  13 H   1.0000    1     1.008    4.012446    1.996440    1.248138
  14 H   1.0000    1     1.008    4.370326   -1.031750    2.596803

      -----------------------------------------------------------      
     |                   =====================                   |     
     |                           x T B                           |     
     |                   =====================                   |     
     |                         S. Grimme                         |     
     |          Mulliken Center for Theoretical Chemistry        |     
     |                    University of Bonn                     |     
      -----------------------------------------------------------      

   * xtb version 6.7.1 (edcfbbe) compiled by 'albert@albert-system' on 2024-07-22

   xtb is free software: you can redistribute it and/or modify it under
   the terms of the GNU Lesser General Public License as published by
   the Free Software Foundation, either version 3 of the License, or
   (at your option) any later version.
   
   xtb is distributed in the hope that it will be useful,
   but WITHOUT ANY WARRANTY; without even the implied warranty of
   MERCHANTABILITY or FITNESS FOR A PARTICULAR PURPOSE.  See the
   GNU Lesser General Public License for more details.
   
   Cite this work as:
   * C. Bannwarth, E. Caldeweyher, S. Ehlert, A. Hansen, P. Pracht,
     J. Seibert, S. Spicher, S. Grimme, WIREs Comput. Mol. Sci., 2020, 11,
     e01493. DOI: 10.1002/wcms.1493
   
   for GFN2-xTB:
   * C. Bannwarth, S. Ehlert and S. Grimme., J. Chem. Theory Comput., 2019,
     15, 1652-1671. DOI: 10.1021/acs.jctc.8b01176
   for GFN1-xTB:
   * S. Grimme, C. Bannwarth, P. Shushkov, J. Chem. Theory Comput., 2017,
     13, 1989-2009. DOI: 10.1021/acs.jctc.7b00118
   for GFN0-xTB:
   * P. Pracht, E. Caldeweyher, S. Ehlert, S. Grimme, ChemRxiv, 2019, preprint.
     DOI: 10.26434/chemrxiv.8326202.v1
   for GFN-FF:
   * S. Spicher and S. Grimme, Angew. Chem. Int. Ed., 2020, 59, 15665-15673.
     DOI: 10.1002/anie.202004239
   
   for ALPB and GBSA implicit solvation:
   * S. Ehlert, M. Stahn, S. Spicher, S. Grimme, J. Chem. Theory Comput.,
     2021, 17, 4250-4261. DOI: 10.1021/acs.jctc.1c00471
   
   for ddCOSMO and CPCM-X implicit solvation:
   * M. Stahn, S. Ehlert, S. Grimme, J. Phys. Chem. A,
     2023, XX, XXXX-XXXX. DOI: 10.1021/acs.jpca.3c04382
   
   for DFT-D4:
   * E. Caldeweyher, C. Bannwarth and S. Grimme, J. Chem. Phys., 2017,
     147, 034112. DOI: 10.1063/1.4993215
   * E. Caldeweyher, S. Ehlert, A. Hansen, H. Neugebauer, S. Spicher,
     C. Bannwarth and S. Grimme, J. Chem. Phys., 2019, 150, 154122.
     DOI: 10.1063/1.5090222
   * E. Caldeweyher, J.-M. Mewes, S. Ehlert and S. Grimme, Phys. Chem. Chem. Phys.
     2020, 22, 8499-8512. DOI: 10.1039/D0CP00502A
   
   for sTDA-xTB:
   * S. Grimme and C. Bannwarth, J. Chem. Phys., 2016, 145, 054103.
     DOI: 10.1063/1.4959605
   
   in the mass-spec context:
   * V. Asgeirsson, C. Bauer and S. Grimme, Chem. Sci., 2017, 8, 4879.
     DOI: 10.1039/c7sc00601b
   * J. Koopman and S. Grimme, ACS Omega 2019, 4, 12, 15120-15133.
     DOI: 10.1021/acsomega.9b02011
   
   for metadynamics refer to:
   * S. Grimme, J. Chem. Theory Comput., 2019, 155, 2847-2862
     DOI: 10.1021/acs.jctc.9b00143
   
   for SPH calculations refer to:
   * S. Spicher and S. Grimme, J. Chem. Theory Comput., 2021, 17, 1701-1714
     DOI: 10.1021/acs.jctc.0c01306
   
   for ONIOM refer to:
   * C. Plett, A. Katbashev, S. Ehlert, S. Grimme, M. Bursch,
     Phys. Chem. Chem. Phys., 2023, 25, 17860-17868. DOI: 10.1039/D3CP02178E
   
   for DIPRO refer to:
   * J. Kohn, N. Gildemeister, S. Grimme, D. Fazzi, A. Hansen,
     J. Chem. Phys., 2023, just accepted.
   
   for PTB refer to:
   * S. Grimme, M. Mueller, A. Hansen, J. Chem. Phys., 2023, 158, 124111.
     DOI: 10.1063/5.0137838
   
   with help from (in alphabetical order)
   P. Atkinson, C. Bannwarth, F. Bohle, G. Brandenburg, E. Caldeweyher
   M. Checinski, S. Dohm, S. Ehlert, S. Ehrlich, I. Gerasimov, C. Hölzer
   A. Katbashev, J. Kohn, J. Koopman, C. Lavigne, S. Lehtola, F. März, M. Müller,
   F. Musil, H. Neugebauer, J. Pisarek, C. Plett, P. Pracht, F. Pultar,
   J. Seibert, P. Shushkov, S. Spicher, M. Stahn, M. Steiner, T. Strunk,
   J. Stückrath, T. Rose, and J. Unsleber
   
 * started run on 2026/09/19 at 20:17:01.478     
   ID    Z sym.   atoms
    1    6 C      1-5
    2    1 H      6-15

           -------------------------------------------------
          |                Calculation Setup                |
           -------------------------------------------------

          program call               : /apps/eb/ORCA/6.1.1-gompi-2023b-avx2/bin/otool_xtb goat_XTB.xyz --grad -c 0 -u 0 -P 8 --namespace goat --input goat_XTB.input.tmp --acc 0.200000
          hostname                   : b3-21
          calculation namespace      : goat
          coordinate file            : goat_XTB.xyz
          omp threads                :                     8


           -------------------------------------------------
          |                 G F N 2 - x T B                 |
           -------------------------------------------------

        Reference                      10.1021/acs.jctc.8b01176
      * Hamiltonian:
        H0-scaling (s, p, d)           1.850000    2.230000    2.230000
        zeta-weighting                 0.500000
      * Dispersion:
        s8                             2.700000
        a1                             0.520000
        a2                             5.000000
        s9                             5.000000
      * Repulsion:
        kExp                           1.500000    1.000000
        rExp                           1.000000
      * Coulomb:
        alpha                          2.000000
        third order                    shell-resolved
        anisotropic                    true
        a3                             3.000000
        a5                             4.000000
        cn-shift                       1.200000
        cn-exp                         4.000000
        max-rad                        5.000000

q/qsh data taken from xtbrestart
CAMM data taken from xtbrestart

          ...................................................
          :                      SETUP                      :
          :.................................................:
          :  # basis functions                  30          :
          :  # atomic orbitals                  30          :
          :  # shells                           20          :
          :  # electrons                        30          :
          :  max. iterations                   250          :
          :  Hamiltonian                  GFN2-xTB          :
          :  restarted?                       true          :
          :  GBSA solvation                  false          :
          :  PC potential                    false          :
          :  electronic temp.          300.0000000     K    :
          :  accuracy                    0.2000000          :
          :  -> integral cutoff          0.3198970E+02      :
          :  -> integral neglect         0.2000000E-08      :
          :  -> SCF convergence          0.2000000E-06 Eh   :
          :  -> wf. convergence          0.2000000E-04 e    :
          :  Broyden damping             0.4000000          :
          :  net charge                          0          :
          :  unpaired electrons                  0          :
          ...................................................

 iter      E             dE          RMSdq      gap      omega  full diag
   1    -16.0467436 -0.160467E+02  0.322E-03    5.27       0.0  T
   2    -16.0467436 -0.116548E-08  0.192E-03    5.27      13.4  T
   3    -16.0467436  0.105708E-07  0.986E-04    5.27      26.2  T
   4    -16.0467436 -0.120644E-07  0.566E-05    5.27     456.2  T
   5    -16.0467436 -0.182752E-10  0.202E-05    5.27    1275.1  T

   *** convergence criteria satisfied after 5 iterations ***

         #    Occupation            Energy/Eh            Energy/eV
      -------------------------------------------------------------
         1        2.0000           -0.6190086             -16.8441
       ...           ...                  ...                  ...
         9        2.0000           -0.4763097             -12.9610
        10        2.0000           -0.4658463             -12.6763
        11        2.0000           -0.4565078             -12.4222
        12        2.0000           -0.4379512             -11.9173
        13        2.0000           -0.4275170             -11.6333
        14        2.0000           -0.4218947             -11.4803
        15        2.0000           -0.3824819             -10.4079 (HOMO)
        16                         -0.1889448              -5.1415 (LUMO)
        17                          0.0953442               2.5944
        18                          0.1205423               3.2801
        19                          0.1400530               3.8110
        20                          0.1672420               4.5509
       ...                                ...                  ...
        30                          0.6507187              17.7070
      -------------------------------------------------------------
                  HL-Gap            0.1935371 Eh            5.2664 eV
             Fermi-level           -0.2857133 Eh           -7.7747 eV

 SCC (total)                   0 d,  0 h,  0 min,  0.007 sec
 SCC setup                      ...        0 min,  0.000 sec (  1.952%)
 Dispersion                     ...        0 min,  0.000 sec (  0.830%)
 classical contributions        ...        0 min,  0.000 sec (  0.261%)
 integral evaluation            ...        0 min,  0.000 sec (  4.210%)
 iterations                     ...        0 min,  0.005 sec ( 74.022%)
 molecular gradient             ...        0 min,  0.001 sec ( 16.273%)
 printout                       ...        0 min,  0.000 sec (  2.126%)

         :::::::::::::::::::::::::::::::::::::::::::::::::::::
         ::                     SUMMARY                     ::
         :::::::::::::::::::::::::::::::::::::::::::::::::::::
         :: total energy             -15.776344131126 Eh    ::
         :: gradient norm              0.000232451310 Eh/a0 ::
         :: HOMO-LUMO gap              5.266411806499 eV    ::
         ::.................................................::
         :: SCC energy               -16.046739272728 Eh    ::
         :: -> isotropic ES            0.003106477650 Eh    ::
         :: -> anisotropic ES          0.004939988336 Eh    ::
         :: -> anisotropic XC          0.011417115199 Eh    ::
         :: -> dispersion             -0.007242614336 Eh    ::
         :: repulsion energy           0.270395141602 Eh    ::
         :: add. restraining           0.000000000000 Eh    ::
         :: total charge               0.000000000000 e     ::
         :::::::::::::::::::::::::::::::::::::::::::::::::::::


Property printout bound to 'properties.out'

           -------------------------------------------------
          | TOTAL ENERGY              -15.776344131126 Eh   |
          | GRADIENT NORM               0.000232451310 Eh/α |
          | HOMO-LUMO GAP               5.266411806499 eV   |
           -------------------------------------------------

------------------------------------------------------------------------
 * finished run on 2026/09/19 at 20:17:01.500     
------------------------------------------------------------------------
 total:
 * wall-time:     0 d,  0 h,  0 min,  0.021 sec
 *  cpu-time:     0 d,  0 h,  0 min,  0.140 sec
 * ratio c/w:     6.565 speedup
 SCF:
 * wall-time:     0 d,  0 h,  0 min,  0.007 sec
 *  cpu-time:     0 d,  0 h,  0 min,  0.049 sec
 * ratio c/w:     7.075 speedup


-------------------------   --------------------
FINAL SINGLE POINT ENERGY       -15.776344131130
-------------------------   --------------------


-------------
DIPOLE MOMENT
-------------
                                X             Y             Z
Total Dipole Moment    :     -0.02100       0.01200       0.01400
                        -----------------------------------------
Magnitude (a.u.)       :      0.02795
Magnitude (Debye)      :      0.07103

                                *** OPTIMIZATION RUN DONE ***

		     ------------------------------
			                   _   
			                  | |  
			  __ _  ___   __ _| |_ 
			 / _` |/ _ \ / _` | __|
			| (_| | (_) | (_| | |_ 
			 \__, |\___/ \__,_|\__|
			 __/ |                
			|___/                 

		      A Global Optimizer Algorithm
		     ------------------------------

Global parameters
-----------------
  GOAT version                               ... default
  Minimum global steps                       ... 3
  Number of base workers                     ... 4
  Split workers by                           ... 2
  Final number of workers                    ... 8
  Number of available CPUs                   ... 8
  Parameter list (worker : temperature)      ...  0 : 2903.97,  1 : 1451.98, 
                                                  2 :  725.99,  3 :  363.00, 
                                                  4 : 2903.97,  5 : 1451.98, 
                                                  6 :  725.99,  7 :  363.00 
  GradComp (mean : sigma)                    ... 1.00 : 0.50
  Number of fragments                        ... 1
  Number of atoms                            ... 15
  Flexibility parameter                      ... 0.75
  Optimizations per global step              ... 168
  Optimizations per worker                   ... 21

Filtering criteria
------------------
  RMSD                                       ... 0.125 Angs (atom. pos.)
  EnDiff                                     ... 0.100 kcal/mol
  RotConst                                   ... 1.00-2.50 %
  Maximum Conf. Energy                       ... 6.000 kcal/mol

Thermodynamics
--------------
  Ensemble temperature                       ... 298.15 K
  Degeneracy of conformers                   ... 1
  *No rotamers will be included in Gconf

------------------------------------------------------------------------------
   Iter  MinTemp     MaxEn       GradComp    NOpt   NProcs    Output
------------------------------------------------------------------------------
List of participating nodes    ...  goat.goat.0.hostnames

   2      725.99     45.00    1.00 : 0.50      21        1    goat.goat.0.2.out
   1     1451.98     45.00    1.00 : 0.50      21        1    goat.goat.0.1.out
   3      363.00     45.00    1.00 : 0.50      21        1    goat.goat.0.3.out
   6      725.99     45.00    1.00 : 0.50      21        1    goat.goat.0.6.out
   5     1451.98     45.00    1.00 : 0.50      21        1    goat.goat.0.5.out
   4     2903.97     45.00    1.00 : 0.50      21        1    goat.goat.0.4.out
   0     2903.97     45.00    1.00 : 0.50      21        1    goat.goat.0.0.out
   7      363.00     45.00    1.00 : 0.50      21        1    goat.goat.0.7.out

			     GOAT Global Iter 1
		Iter    Min En       Sconf       Gconf   
		        Hartree      cal/(molK)  kcal/mol
		=========================================

		   1    -15.776344   1.014       -0.138

List of participating nodes    ...  goat.goat.1.hostnames

   7      363.00     45.00    1.00 : 0.50      21        1    goat.goat.1.7.out
   0     2903.97     45.00    1.00 : 0.50      21        1    goat.goat.1.0.out
   1     1451.98     45.00    1.00 : 0.50      21        1    goat.goat.1.1.out
   2      725.99     45.00    1.00 : 0.50      21        1    goat.goat.1.2.out
   3      363.00     45.00    1.00 : 0.50      21        1    goat.goat.1.3.out
   6      725.99     45.00    1.00 : 0.50      21        1    goat.goat.1.6.out
   5     1451.98     45.00    1.00 : 0.50      21        1    goat.goat.1.5.out
   4     2903.97     45.00    1.00 : 0.50      21        1    goat.goat.1.4.out

			     GOAT Global Iter 2
		Iter    Min En       Sconf       Gconf   
		        Hartree      cal/(molK)  kcal/mol
		=========================================

		   1    -15.776344   1.014       -0.138
		   2    -15.776344   1.784       -0.215

List of participating nodes    ...  goat.goat.2.hostnames

   0     2903.97     45.00    1.00 : 0.50      21        1    goat.goat.2.0.out
   5     1451.98     45.00    1.00 : 0.50      21        1    goat.goat.2.5.out
   1     1451.98     45.00    1.00 : 0.50      21        1    goat.goat.2.1.out
   2      725.99     45.00    1.00 : 0.50      21        1    goat.goat.2.2.out
   6      725.99     45.00    1.00 : 0.50      21        1    goat.goat.2.6.out
   7      363.00     45.00    1.00 : 0.50      21        1    goat.goat.2.7.out
   3      363.00     45.00    1.00 : 0.50      21        1    goat.goat.2.3.out
   4     2903.97     45.00    1.00 : 0.50      21        1    goat.goat.2.4.out

			     GOAT Global Iter 3
		Iter    Min En       Sconf       Gconf   
		        Hartree      cal/(molK)  kcal/mol
		=========================================

		   1    -15.776344   1.014       -0.138
		   2    -15.776344   1.784       -0.215
		   3    -15.776344   1.784       -0.215

		Global minimum found!
		Writing structure to goat.globalminimum.xyz

		# Final ensemble info #
		Conformer     Energy     Degen.   % total   % cumul.  
		              (kcal/mol)
		------------------------------------------------------
		        0     0.000	     1      69.54      69.54
		        1     0.795	     1      18.18      87.73
		        2     1.266	     1       8.21      95.94
		        3     1.683	     1       4.06     100.00

		Conformers below 3 kcal/mol: 4
		Lowest energy conformer    : -15.776344 Eh
		Sconf at 298.15 K          :  1.78 cal/(molK)
		Gconf at 298.15 K          : -0.22 kcal/mol

		Writing final ensemble to goat.finalensemble.xyz
Converting goat.gbw to JSON (see goat.2jsonout) ... FAILED

--------------------------------
SUGGESTED CITATIONS FOR THIS RUN
--------------------------------

Below you find a list of papers that are relevant to this ORCA run
We neither can nor want to force you to cite these papers, but we appreciate if you do
You receive ORCA, which is the product of decades of hard work by many enthusiastic individuals, for free
The only thing we kindly ask in return is that you cite our papers,
We deeply appreciate it, if you show your appreciation for ORCA by not just citing the generic ORCA reference.

Please note that relegating all ORCA citations to the supporting information does *not* help us.
SI sections are not indexed - citations you put there will not count into any citation statistics
But we need these citations in order to attract the funding resources that allow us to do what we are doing

Therefore, if you are a happy ORCA user, please consider citing a few of the papers listed below in the main body of your paper

In addition to the list printed below, the program has created the file goat.bibtex that contains the list in bibtex format
You can import this file easily into all common literature databanks and citation aid programs

It goes without saying that in many instances, there are alternative algorithms to achieve similar
results as the ones you have gotten from ORCA. It is, of course, also the case that in some instances
ORCA just re-implements algorithms worked out by others. We are fully aware of that and we are also
fully appreciative of our colleagues work. Hence this citation list should not be read as indicating
that the listed papers, which are focused on our own work, are the only ones worth citing. It simply
meant to make it easier for users to cite ORCA specific papers. It is not a substitute for doing your
own literature research and citing the relevant literature in a scientifically appropriate manner.

List of essential papers. We consider these as the minimum necessary citations

  1. Bannwarth, C.; Ehlert, S.; Grimme, S.
     GFN2-xTB—An Accurate and Broadly Parametrized Self-Consistent Tight-Binding Quantum Chemical Method with Multipole Electrostatics and Density-Dependent Dispersion Contributions
     J. Chem. Theory Comput. 2019 15(3), 1652-1671
     doi.org/10.1021/acs.jctc.8b01176
  2. Neese, F.
     Software update: the ORCA program system, version 6.0
     WIRES Comput. Molec. Sci. 2025 15(1), e70019
     doi.org/10.1002/wcms.70019
  3. de Souza, B.
     GOAT: A Global Optimization Algorithm for Molecules and Atomic Clusters
     Angewandte Chemie 2025 64(18), e202500393
     doi.org/10.1002/anie.202500393

List of papers to cite with high priority. The work reported in these papers was absolutely
necessary for this run to complete.
Our perspective: the developers of density functionals and basis sets usually get cited in chemistry papers
Good! But without the algorithms to do something with them, the functionals or basis sets would not do anything.
Hence, in our opinion, the algorithm design and method developments papers are equally worthy of getting cited

  1. Bannwarth, C.; Caldeweyher, E.; Ehlert, S.; Hansen, A.; Pracht, P.; Seibert, J.; Spicher, S.; Grimme, S.
     Extended tight-binding quantum chemistry methods
     WIRES Comput. Molec. Sci. 2020 11(2), e1493
     doi.org/10.1002/wcms.1493

List of suggested additional citations. These are papers that are important in the 'surrounding' of 
of this run, or papers that preceded the highly important papers. If you like your results we are grateful for a citation.

  1. Neese, F.
     The ORCA program system
     WIRES Comput. Molec. Sci. 2012 2(1), 73-78
     doi.org/10.1002/wcms.81
  2. Neese, F.
     Software update: the ORCA program system, version 4.0
     WIRES Comput. Molec. Sci. 2018 8(1), 1-6
     doi.org/10.1002/wcms.1327
  3. Neese, F.; Wennmohs, F.; Becker, U.; Riplinger, C.
     The ORCA quantum chemistry program package
     J. Chem. Phys. 2020 152(22), 224108
     doi.org/10.1063/5.0004608
  4. Neese, F.
     Software update: The ORCA program system—Version 5.0
     WIRES Comput. Molec. Sci. 2022 12(1), e1606
     doi.org/10.1002/wcms.1606

List of optional additional citations

  1. Neese, F.
     Approximate second-order SCF convergence for spin unrestricted wavefunctions
     Chem. Phys. Lett. 2000 325(1-3), 93-98
     doi.org/10.1016/s0009-2614(00)00662-x

Timings for individual modules:

Sum of individual times          ...       77.626 sec (=   1.294 min)
Geometry relaxation              ...        0.023 sec (=   0.000 min)   0.0 %
GOAT                             ...       77.115 sec (=   1.285 min)  99.3 %
XTB module                       ...        0.488 sec (=   0.008 min)   0.6 %
                             ****ORCA TERMINATED NORMALLY****
TOTAL RUN TIME: 0 days 0 hours 1 minutes 19 seconds 640 msec
