15
Coordinates from ORCA-job goat E -15.767408772710
  C      -2.470087      0.359702      0.423389
  C      -1.163543      0.380089     -0.264263
  C      -0.154726     -0.393263      0.123862
  C       1.171687     -0.420191     -0.518804
  C       2.275759     -0.039196      0.454017
  H      -2.387180      0.117328      1.499928
  H      -3.109744     -0.408093     -0.047581
  H      -2.892944      1.384333      0.383175
  H      -1.040600      1.054857     -1.112710
  H      -0.312532     -1.055847      0.975949
  H       1.212194      0.290375     -1.346248
  H       1.330076     -1.431086     -0.914045
  H       3.167417     -0.626309      0.256756
  H       2.511756      1.023079      0.355539
  H       1.862467     -0.235779      1.468758
15
Coordinates from ORCA-job goat E -15.772214195560
  C      -2.508378      0.374009      0.418327
  C      -1.174524      0.380350     -0.253095
  C      -0.162438     -0.386586      0.133546
  C       1.177506     -0.426962     -0.517781
  C       2.308803     -0.042326      0.456920
  H      -2.435692      0.111982      1.474891
  H      -3.156883     -0.358969     -0.060606
  H      -2.943323      1.373021      0.373733
  H      -1.052633      1.038875     -1.102587
  H      -0.307136     -1.037635      0.987755
  H       1.199062      0.260938     -1.366085
  H       1.339475     -1.439776     -0.901459
  H       3.216715     -0.589436      0.227444
  H       2.517994      1.021344      0.397477
  H       1.981452     -0.278827      1.469243
15
Coordinates from ORCA-job goat E -15.773671008240
  C      -2.520386      0.389643      0.413163
  C      -1.173849      0.376302     -0.245023
  C      -0.162801     -0.383240      0.146757
  C       1.179134     -0.438079     -0.512393
  C       2.312175     -0.042231      0.454542
  H      -2.451519      0.096317      1.457080
  H      -3.187849     -0.307827     -0.086138
  H      -2.955780      1.382394      0.369785
  H      -1.055564      1.018303     -1.105786
  H      -0.291442     -1.020184      1.012057
  H       1.186743      0.225381     -1.379303
  H       1.350069     -1.455998     -0.872518
  H       3.244739     -0.522389      0.173219
  H       2.462961      1.032128      0.449196
  H       2.063372     -0.350521      1.463084
15
Coordinates from ORCA-job goat E -15.774723865440
  C      -2.521656      0.409923      0.406536
  C      -1.171156      0.365719     -0.242822
  C      -0.162646     -0.385395      0.161957
  C       1.178886     -0.458343     -0.502369
  C       2.305608     -0.038408      0.450729
  H      -2.459504      0.072538      1.436507
  H      -3.217815     -0.239412     -0.122138
  H      -2.939512      1.410870      0.378057
  H      -1.057637      0.983981     -1.123109
  H      -0.274039     -1.000475      1.045678
  H       1.175829      0.175110     -1.390861
  H       1.360598     -1.485584     -0.828663
  H       3.267135     -0.402501      0.093871
  H       2.358764      1.043225      0.531776
  H       2.157144     -0.451247      1.442577
15
Coordinates from ORCA-job goat E -15.775497439810
  C      -2.515118      0.428558      0.399382
  C      -1.168088      0.351598     -0.246898
  C      -0.162430     -0.391206      0.176173
  C       1.177310     -0.483238     -0.489628
  C       2.294917     -0.031422      0.446332
  H      -2.467348      0.042574      1.413532
  H      -3.239759     -0.164721     -0.161579
  H      -2.896376      1.446550      0.403192
  H      -1.058310      0.942265     -1.148578
  H      -0.261823     -0.980643      1.079509
  H       1.170770      0.120958     -1.398172
  H       1.366951     -1.520868     -0.779443
  H       3.270355     -0.257487      0.015625
  H       2.240377      1.039915      0.623718
  H       2.248573     -0.542832      1.404561
15
Coordinates from ORCA-job goat E -15.775985899100
  C      -2.506148      0.440019      0.393576
  C      -1.166464      0.337072     -0.256093
  C      -0.162438     -0.397971      0.185516
  C       1.175396     -0.505453     -0.478614
  C       2.286929     -0.021845      0.442513
  H      -2.478628      0.008433      1.391183
  H      -3.253473     -0.096637     -0.196627
  H      -2.838523      1.475987      0.444815
  H      -1.058193      0.903102     -1.174751
  H      -0.258279     -0.963892      1.104672
  H       1.171924      0.075992     -1.402335
  H       1.367819     -1.551444     -0.738243
  H       3.258747     -0.135047     -0.038274
  H       2.148804      1.028138      0.692807
  H       2.312528     -0.596454      1.367580
15
Coordinates from ORCA-job goat E -15.776203791290
  C      -2.501343      0.441791      0.391092
  C      -1.167168      0.327059     -0.265318
  C      -0.162499     -0.401935      0.188028
  C       1.174498     -0.517055     -0.473638
  C       2.286095     -0.013179      0.440641
  H      -2.490889     -0.022361      1.374905
  H      -3.261866     -0.052024     -0.217997
  H      -2.792465      1.487680      0.488502
  H      -1.058419      0.879884     -1.191470
  H      -0.262091     -0.954509      1.114694
  H       1.175933      0.052920     -1.404933
  H       1.365383     -1.567044     -0.717959
  H       3.252273     -0.083115     -0.056416
  H       2.113122      1.026225      0.712790
  H       2.329438     -0.604336      1.354804
15
Coordinates from ORCA-job goat E -15.776270424490
  C      -2.501421      0.439973      0.390396
  C      -1.168546      0.321616     -0.270111
  C      -0.162096     -0.402522      0.188608
  C       1.174898     -0.521178     -0.472061
  C       2.288413     -0.007932      0.439795
  H      -2.501884     -0.048167      1.362284
  H      -3.269453     -0.022723     -0.231017
  H      -2.767814      1.488396      0.521897
  H      -1.059423      0.869216     -1.198378
  H      -0.265715     -0.949271      1.117838
  H       1.178339      0.042764     -1.407120
  H       1.364914     -1.572519     -0.709320
  H       3.253037     -0.075399     -0.058012
  H       2.108794      1.031439      0.706575
  H       2.327956     -0.593692      1.356350
15
Coordinates from ORCA-job goat E -15.776303067490
  C      -2.502509      0.438008      0.390091
  C      -1.169910      0.317037     -0.272631
  C      -0.161455     -0.402398      0.189394
  C       1.175623     -0.523229     -0.470972
  C       2.290099     -0.003878      0.439016
  H      -2.511710     -0.073871      1.349324
  H      -3.277165      0.005200     -0.242837
  H      -2.750328      1.486609      0.551045
  H      -1.061283      0.861444     -1.202317
  H      -0.267334     -0.945084      1.120520
  H       1.178851      0.035596     -1.409021
  H       1.366611     -1.575340     -0.702745
  H       3.254776     -0.078487     -0.056559
  H       2.110995      1.038245      0.694438
  H       2.324740     -0.579852      1.360977
15
Coordinates from ORCA-job goat E -15.776330211710
  C      -2.503507      0.435667      0.389978
  C      -1.171617      0.311098     -0.274675
  C      -0.160625     -0.402572      0.190554
  C       1.176442     -0.524798     -0.469601
  C       2.290839      0.001044      0.437911
  H      -2.523064     -0.106737      1.331945
  H      -3.286213      0.041342     -0.257101
  H      -2.730390      1.483070      0.585941
  H      -1.064531      0.852188     -1.206381
  H      -0.267575     -0.940831      1.124125
  H       1.177909      0.028356     -1.410846
  H       1.370079     -1.577628     -0.695425
  H       3.256631     -0.087260     -0.053083
  H       2.116313      1.047908      0.676172
  H       2.319310     -0.560847      1.368211
15
Coordinates from ORCA-job goat E -15.776341181660
  C      -2.503524      0.434409      0.390119
  C      -1.172571      0.307403     -0.275254
  C      -0.160215     -0.403189      0.191411
  C       1.176738     -0.525178     -0.468672
  C       2.290127      0.004040      0.437033
  H      -2.529048     -0.126148      1.321311
  H      -3.290789      0.062957     -0.265213
  H      -2.719331      1.480692      0.605199
  H      -1.067015      0.846681     -1.208494
  H      -0.266314     -0.939307      1.126490
  H       1.176307      0.025433     -1.411337
  H       1.372678     -1.578285     -0.691824
  H       3.257240     -0.094817     -0.050041
  H       2.120848      1.054294      0.663999
  H       2.314869     -0.548985      1.372997
15
Coordinates from ORCA-job goat E -15.776343729020
  C      -2.503162      0.434182      0.390275
  C      -1.172750      0.306426     -0.275038
  C      -0.160237     -0.403732      0.191806
  C       1.176659     -0.525023     -0.468321
  C       2.289287      0.004906      0.436586
  H      -2.530213     -0.130826      1.318825
  H      -3.291490      0.068069     -0.267310
  H      -2.716906      1.480348      0.609033
  H      -1.067861      0.845214     -1.208873
  H      -0.265034     -0.939682      1.127238
  H       1.175319      0.025545     -1.411052
  H       1.373412     -1.578111     -0.691397
  H       3.257141     -0.097724     -0.048827
  H       2.122842      1.056301      0.660489
  H       2.312993     -0.545893      1.374290
15
Coordinates from ORCA-job goat E -15.776344131130
  C      -2.503000      0.434248      0.390320
  C      -1.172697      0.306449     -0.274828
  C      -0.160361     -0.403967      0.191975
  C       1.176556     -0.524950     -0.468236
  C       2.288982      0.004993      0.436398
  H      -2.530261     -0.130537      1.319023
  H      -3.291198      0.067742     -0.267406
  H      -2.717092      1.480548      0.608394
  H      -1.067870      0.845172     -1.208749
  H      -0.264412     -0.940189      1.127338
  H       1.175030      0.025934     -1.410834
  H       1.373297     -1.577994     -0.691628
  H       3.257055     -0.097943     -0.048697
  H       2.123295      1.056471      0.660486
  H       2.312677     -0.545978      1.374169
