15
-15.7763441945 converged=true
C  -2.50304849116281591392 0.43424761206596823593 0.39030819970670688202
C  -1.17267736702774771906 0.30647198323457047753 -0.27478043970225951576
C  -0.16043472352343968179 -0.40402830488129448661 0.19207460780485285934
C  1.17653659722951631217 -0.52500123237174745050 -0.46821692846239065799
C  2.28900666480433745420 0.00506575558504721111 0.43629636220742323838
H  -2.53064466753966588186 -0.13055706064886390960 1.31897069151828461031
H  -3.29115617752961853171 0.06783187371521227915 -0.26754677355450301457
H  -2.71701050627006113203 1.48053544889015142871 0.60850186839433606512
H  -1.06773449511784424004 0.84518983674432313080 -1.20865084276831002974
H  -0.26418591644618510950 -0.94040542413634586882 1.12734902522083046961
H  1.17500002825641303161 0.02584541470921126322 -1.41085423801471621097
H  1.37315322036530074179 -1.57805265393169014132 -0.69157957184209339907
H  3.25712679191961118619 -0.09783769818182420919 -0.04868384962965191520
H  2.12345957316230560252 1.05654575416798901522 0.66043855588731115169
H  2.31260947887989676275 -0.54585128496070767223 1.37409693323417791966
15
-15.7750776437 converged=true
C  -2.38733215788328667628 0.48598308897045428001 0.41174932023628008082
C  -0.90218112972432040753 0.38760581189980120032 0.28636043006325406779
C  -0.25762058906395662872 -0.70922443062976170403 -0.07248371876069900632
C  1.22454719512353715771 -0.87995972863591620516 -0.21830702027315013192
C  2.05247236218668627217 0.36126611742740055710 0.08660005714529975251
H  -2.86464291480780497423 -0.46009003904020501219 0.16759775021605527456
H  -2.77263835413860881829 1.25627311480823711243 -0.25642055386566231512
H  -2.66254337187502310158 0.76571497923959119802 1.42878327536054272606
H  -0.36467049092789233233 1.29715827243223347232 0.51410251093775238829
H  -0.82612317229622889148 -1.60549199174758627784 -0.29433017819335310916
H  1.43047830077310056396 -1.20883175204012127679 -1.24262849293853694377
H  1.54002663652595295218 -1.69538388367988557270 0.44151993873411676805
H  3.11040266202672865958 0.14413355414252537745 -0.04471527118585863492
H  1.78494245027520181957 1.17547976254473174329 -0.58269316810557270081
H  1.89488258380591756413 0.68536714430850043112 1.11258872062952907100
15
-15.7743267580 converged=true
C  -2.50797928508896994515 0.42508020285778863601 0.37084722794496682852
C  -1.18530220323557000661 0.22653658401973414405 -0.30676153638160996717
C  -0.15230458916895517341 -0.38608194379090154946 0.24731669867442124255
C  1.17696021451285792736 -0.58363845806622582923 -0.40904345789096629993
C  2.29181888423788793219 0.09593046564606175219 0.38597074635790823427
H  -2.94741253156726434881 -0.53363994842840323241 0.64478491443869312416
H  -3.20368891002171229943 0.94874433067464214453 -0.27858465084756189878
H  -2.38765404901236033552 1.00478252801409873030 1.28543488694176022413
H  -1.09639332070699158095 0.61498645976134036495 -1.31293924239955184241
H  -0.23345847913243247818 -0.77361943902404639584 1.25563066011216917239
H  1.15152603945187070877 -0.18200243711674482516 -1.42402346375795318956
H  1.39058903804814337768 -1.65490855801412140025 -0.47385624759949351859
H  3.25430219071069215531 -0.05926430887166436734 -0.09626633315914065459
H  2.10715284934408941808 1.16577006536025429284 0.45462023516862148931
H  2.34184416162872066636 -0.30867552302181039403 1.39459316239773478685
15
-15.7736624123 converged=true
C  -2.38680336512150592654 0.57116430808540363806 0.30964901323723309501
C  -0.95201395532946542222 0.20244349626314919743 0.49273469059139446413
C  -0.24708831254340704597 -0.51203773689406273384 -0.36831383288563329659
C  1.19600725529948026526 -0.89985419362903118490 -0.20149306565675845215
C  2.09210873081245907201 0.26664557338988015278 0.21064231683527662176
H  -2.98575846253168153410 0.17665043146606579372 1.13059538206087739631
H  -2.77476812603875133689 0.17817466487168270861 -0.62712739737605527335
H  -2.50190457247125808138 1.65513262061785315638 0.31045936953490010923
H  -0.49899248718907018851 0.56376712453798238922 1.40652316249266484682
H  -0.72790769358410278844 -0.86893671465832211798 -1.27070997756504033838
H  1.56331770834238836798 -1.31402470499397439063 -1.14246457752178121048
H  1.27091972090309379695 -1.68975468842818998816 0.55304361808399460365
H  2.00911594329044485008 1.07835358163338868032 -0.50850366911554534255
H  1.81299910378019202284 0.64659117713272895589 1.18953485837130479297
H  3.13076852238118519267 -0.05431491939454268641 0.25315370891315719382
