15
Coordinates from ORCA-job goat E -15.776344131130
  C          -2.50299969344031      0.43424800222079      0.39031991268850
  C          -1.17269725446861      0.30644941706179     -0.27482824879765
  C          -0.16036139263132     -0.40396702841145      0.19197479248470
  C           1.17655637122042     -0.52494982735355     -0.46823562986667
  C           2.28898248271528      0.00499297876851      0.43639785030853
  H          -2.53026117752514     -0.13053711405879      1.31902282893072
  H          -3.29119815604948      0.06774191280335     -0.26740619299212
  H          -2.71709161924656      1.48054839506572      0.60839363263087
  H          -1.06787032007275      0.84517244105471     -1.20874896914374
  H          -0.26441228146356     -0.94018871838771      1.12733758797531
  H           1.17502955152587      0.02593427650248     -1.41083380920561
  H           1.37329711014007     -1.57799388178685     -0.69162792763958
  H           3.25705465007692     -0.09794291714698     -0.04869729988608
  H           2.12329479358895      1.05647056602795      0.66048615755891
  H           2.31267694563021     -0.54597848235997      1.37416891495393
