15
-15.7763442179
C  -2.50305012249270664171 0.43425142963136947882 0.39030445754494330624
C  -1.17266755325856064651 0.30647403823485735996 -0.27476620729369083396
C  -0.16045109645460783887 -0.40405083801001856481 0.19209804368945135322
C  1.17652956612812431558 -0.52501480006281109336 -0.46821396578750007489
C  2.28899352413853129917 0.00508620772798771669 0.43627225317308093722
H  -2.53072023080353147861 -0.13057487307348089600 1.31895113824768239752
H  -3.29114289876267651636 0.06787254089244536270 -0.26758846704562444518
H  -2.71697280539317143067 1.48053944779133872522 0.60854039532133086254
H  -1.06769154948709488195 0.84520272176046429280 -1.20862157447263962595
H  -0.26411333309534612557 -0.94047854742137559914 1.12734792657587945541
H  1.17498581351196573763 0.02581245517842074844 -1.41086418683057579493
H  1.37312777557225418334 -1.57807177389053965300 -0.69155597293891757360
H  3.25712755873392101336 -0.09780797627548791506 -0.04868146954207850513
H  2.12346409623744714068 1.05657073008040303108 0.66041191322701642274
H  2.31258126542545427995 -0.54581074256357342556 1.37408931613164098096
