15
-15.7763442179 converged=true
C  -2.50305012249270664171 0.43425142963136947882 0.39030445754494330624
C  -1.17266755325856064651 0.30647403823485735996 -0.27476620729369083396
C  -0.16045109645460783887 -0.40405083801001856481 0.19209804368945135322
C  1.17652956612812431558 -0.52501480006281109336 -0.46821396578750007489
C  2.28899352413853129917 0.00508620772798771669 0.43627225317308093722
H  -2.53072023080353147861 -0.13057487307348089600 1.31895113824768239752
H  -3.29114289876267651636 0.06787254089244536270 -0.26758846704562444518
H  -2.71697280539317143067 1.48053944779133872522 0.60854039532133086254
H  -1.06769154948709488195 0.84520272176046429280 -1.20862157447263962595
H  -0.26411333309534612557 -0.94047854742137559914 1.12734792657587945541
H  1.17498581351196573763 0.02581245517842074844 -1.41086418683057579493
H  1.37312777557225418334 -1.57807177389053965300 -0.69155597293891757360
H  3.25712755873392101336 -0.09780797627548791506 -0.04868146954207850513
H  2.12346409623744714068 1.05657073008040303108 0.66041191322701642274
H  2.31258126542545427995 -0.54581074256357342556 1.37408931613164098096
15
-15.7750777207 converged=true
C  -2.38730597103755393107 0.48597114889540754534 0.41175141605127912880
C  -0.90214126040027042830 0.38767144979994966336 0.28641532782215195496
C  -0.25757842479424819526 -0.70915841848267502368 -0.07243393080363565162
C  1.22456580366527401083 -0.88001242053637696028 -0.21828784537150569545
C  2.05249921723340911228 0.36122560209866610981 0.08661202898518637061
H  -2.86453368541988195872 -0.46019666674142395424 0.16778673197898730240
H  -2.77263027528636873953 1.25605620916442251023 -0.25665315910023694945
H  -2.66263098632093431206 0.76591339018449255960 1.42868931723910153053
H  -0.36472575152366909501 1.29726787530257348102 0.51420252948841504992
H  -0.82618203066584472438 -1.60535527574563352537 -0.29432964708837250356
H  1.43042630955129745907 -1.20884172544516399483 -1.24262753278295012827
H  1.54000699233123516940 -1.69548264588077790549 0.44148413812600850736
H  3.11042709754301460734 0.14414465530378803293 -0.04477126463767726328
H  1.78488307499966292191 1.17541108977678798730 -0.58268943414994367469
H  1.89491990012488131789 0.68538575230596332499 1.11257492424318904511
15
-15.7743267580 converged=true
C  -2.50783573712508456310 0.42491109302401258718 0.37089230560452307595
C  -1.18527108478431442151 0.22698005425499012677 -0.30666825059555358202
C  -0.15245081960985437664 -0.38592968929370619069 0.24730564334204585553
C  1.17690254794865256649 -0.58347398432319375061 -0.40901293225328161363
C  2.29183672387274617321 0.09601666488899926466 0.38598254497688738729
H  -2.94687608251393795555 -0.53399921135297323538 0.64433413816081219760
H  -3.20369655073073911211 0.94873226817182987336 -0.27847041653460619104
H  -2.38749092687901587340 1.00419407852409259263 1.28579902828271763759
H  -1.09679237621535863312 0.61534817230317706560 -1.31294401199899857247
H  -0.23372900039970806452 -0.77395592624270126425 1.25539942575390695012
H  1.15149943080782124483 -0.18190140316703051759 -1.42401201908779651006
H  1.39047984626182485890 -1.65477692309179524877 -0.47378950755428950181
H  3.25442497124820384613 -0.06042226272333724862 -0.09563059149326076647
H  2.10798642082056053582 1.16604343784909159076 0.45355921807299232063
H  2.34101264729820979227 -0.30776634882145326166 1.39497902532389894681
15
-15.7736624123 converged=true
C  -2.38696825257350608851 0.57123243833202830277 0.30966154241731347341
C  -0.95246557014477040148 0.20148864788794151881 0.49296340434700947064
C  -0.24709496786620788189 -0.51172288225337148049 -0.36888530615108200417
C  1.19599797574977162462 -0.89971671899756988644 -0.20153863131605098680
C  2.09227846640129744316 0.26661439858510710410 0.21088437668622805887
H  -2.98634058739746333089 0.17649014669010229528 1.13017181957292445205
H  -2.77482097843228459055 0.17925441222120414020 -0.62756656181560721564
H  -2.50131300771587694598 1.65527261064941311197 0.31127187681857670931
H  -0.49983368750328271979 0.56107368068050522680 1.40761685870864283743
H  -0.72739232845584633758 -0.86697785803433480289 -1.27212595365422131977
H  1.56362425257892767583 -1.31372192471993032292 -1.14247754151281277757
H  1.27080887872215431145 -1.68972778281518287713 0.55287989752195687565
H  2.00922493782949151964 1.07857616823810809059 -0.50804917541868777064
H  1.81335090568452983462 0.64618625115809369408 1.18988096931838605030
H  3.13094397312306593761 -0.05432156762210228751 0.25303602447741396775
