15
-15.7763441311 converged=true
C  -2.50304208838156894146 0.43424661586188473272 0.39031363721042389159
C  -1.17269169996463107353 0.30646475184358140664 -0.27480063821836020477
C  -0.16041041899625796407 -0.40400188278734211478 0.19203568995002254227
C  1.17654707092890653541 -0.52498253361469782163 -0.46822361473192436465
C  2.28901685247999742145 0.00503705002154980919 0.43633636777717427213
H  -2.53051652746098509894 -0.13053875120318239600 1.31899310298199923253
H  -3.29117935950716589133 0.06778993597566188023 -0.26748545269485041187
H  -2.71705832489678567043 1.48053421689012831841 0.60845316129187143606
H  -1.06779590224640141827 0.84517497191262691558 -1.20869092194260474571
H  -0.26428753312394848152 -0.94031090204154388346 1.12734449811714121381
H  1.17501714057462747220 0.02588452441025389586 -1.41084513193874294679
H  1.37320326286456562137 -1.57802847564718828899 -0.69160805064721886382
H  3.25711706896189623350 -0.09787899230346587542 -0.04868529473408694103
H  2.12342813825567677810 1.05651188213899493995 0.66046934268125645495
H  2.31265233051207630410 -0.54590239145726238146 1.37411690489789806158
15
-15.7750776437 converged=true
C  -2.38740159555116093770 0.48600257165454885389 0.41171980521134515785
C  -0.90225314432842351753 0.38750565717506113561 0.28635788983775295469
C  -0.25767653394962725111 -0.70929770736126229735 -0.07250467719778593001
C  1.22455204032362718891 -0.87983549514444536754 -0.21833780101587313416
C  2.05243574824663799205 0.36130056212922351255 0.08654071515205366549
H  -2.86482953711205823311 -0.45993541767699891443 0.16729714719719762650
H  -2.77264903357494763014 1.25657698787807392549 -0.25613964031744174132
H  -2.66249273117384266385 0.76545977001569276421 1.42886960193912515571
H  -0.36463088541352201011 1.29697782445111986505 0.51407604391567773838
H  -0.82603196336173678738 -1.60568589404665562625 -0.29424827447247448031
H  1.43062631565584008619 -1.20879843414652632383 -1.24268519393652465688
H  1.54013158660593973970 -1.69515108146887016893 0.44161774858571939406
H  3.11035586896431759385 0.14406661288600489113 -0.04469501168542040770
H  1.78501919772429440414 1.17552642801681450635 -0.58274188203399868158
H  1.89484467694466540699 0.68528763563821792903 1.11259712882064487616
